 Entering Gaussian System, Link 0=g16
 Input=vsa3_crest_conformers-3.com
 Output=vsa3_crest_conformers-3.log
 Initial command:
 /uufs/chpc.utah.edu/sys/installdir/gaussian16/C01/AVX/g16/l1.exe "/scratch/general/vast/u6067110/GAUSSSCRDIR/10754894-notchpeak.peaks/Gau-1225098.inp" -scrdir="/scratch/general/vast/u6067110/GAUSSSCRDIR/10754894-notchpeak.peaks/"
 Entering Link 1 = /uufs/chpc.utah.edu/sys/installdir/gaussian16/C01/AVX/g16/l1.exe PID=   1225099.
  
 Copyright (c) 1988-2019, Gaussian, Inc.  All Rights Reserved.
  
 This is part of the Gaussian(R) 16 program.  It is based on
 the Gaussian(R) 09 system (copyright 2009, Gaussian, Inc.),
 the Gaussian(R) 03 system (copyright 2003, Gaussian, Inc.),
 the Gaussian(R) 98 system (copyright 1998, Gaussian, Inc.),
 the Gaussian(R) 94 system (copyright 1995, Gaussian, Inc.),
 the Gaussian 92(TM) system (copyright 1992, Gaussian, Inc.),
 the Gaussian 90(TM) system (copyright 1990, Gaussian, Inc.),
 the Gaussian 88(TM) system (copyright 1988, Gaussian, Inc.),
 the Gaussian 86(TM) system (copyright 1986, Carnegie Mellon
 University), and the Gaussian 82(TM) system (copyright 1983,
 Carnegie Mellon University). Gaussian is a federally registered
 trademark of Gaussian, Inc.
  
 This software contains proprietary and confidential information,
 including trade secrets, belonging to Gaussian, Inc.
  
 This software is provided under written license and may be
 used, copied, transmitted, or stored only in accord with that
 written license.
  
 The following legend is applicable only to US Government
 contracts under FAR:
  
                    RESTRICTED RIGHTS LEGEND
  
 Use, reproduction and disclosure by the US Government is
 subject to restrictions as set forth in subparagraphs (a)
 and (c) of the Commercial Computer Software - Restricted
 Rights clause in FAR 52.227-19.
  
 Gaussian, Inc.
 340 Quinnipiac St., Bldg. 40, Wallingford CT 06492
  
  
 ---------------------------------------------------------------
 Warning -- This program may not be used in any manner that
 competes with the business of Gaussian, Inc. or will provide
 assistance to any competitor of Gaussian, Inc.  The licensee
 of this program is prohibited from giving any competitor of
 Gaussian, Inc. access to this program.  By using this program,
 the user acknowledges that Gaussian, Inc. is engaged in the
 business of creating and licensing software in the field of
 computational chemistry and represents and warrants to the
 licensee that it is not a competitor of Gaussian, Inc. and that
 it will not use this program in any manner prohibited above.
 ---------------------------------------------------------------
  

 Cite this work as:
 Gaussian 16, Revision C.01,
 M. J. Frisch, G. W. Trucks, H. B. Schlegel, G. E. Scuseria, 
 M. A. Robb, J. R. Cheeseman, G. Scalmani, V. Barone, 
 G. A. Petersson, H. Nakatsuji, X. Li, M. Caricato, A. V. Marenich, 
 J. Bloino, B. G. Janesko, R. Gomperts, B. Mennucci, H. P. Hratchian, 
 J. V. Ortiz, A. F. Izmaylov, J. L. Sonnenberg, D. Williams-Young, 
 F. Ding, F. Lipparini, F. Egidi, J. Goings, B. Peng, A. Petrone, 
 T. Henderson, D. Ranasinghe, V. G. Zakrzewski, J. Gao, N. Rega, 
 G. Zheng, W. Liang, M. Hada, M. Ehara, K. Toyota, R. Fukuda, 
 J. Hasegawa, M. Ishida, T. Nakajima, Y. Honda, O. Kitao, H. Nakai, 
 T. Vreven, K. Throssell, J. A. Montgomery, Jr., J. E. Peralta, 
 F. Ogliaro, M. J. Bearpark, J. J. Heyd, E. N. Brothers, K. N. Kudin, 
 V. N. Staroverov, T. A. Keith, R. Kobayashi, J. Normand, 
 K. Raghavachari, A. P. Rendell, J. C. Burant, S. S. Iyengar, 
 J. Tomasi, M. Cossi, J. M. Millam, M. Klene, C. Adamo, R. Cammi, 
 J. W. Ochterski, R. L. Martin, K. Morokuma, O. Farkas, 
 J. B. Foresman, and D. J. Fox, Gaussian, Inc., Wallingford CT, 2019.
 
 ******************************************
 Gaussian 16:  ES64L-G16RevC.01  3-Jul-2019
                31-Jan-2026 
 ******************************************
 %NProcShared=32
 Will use up to   32 processors via shared memory.
 %Mem=48GB
 %chk=vsa3_crest_conformers-3.chk
 ----------------------------------------------------------------------
 #N OPT FREQ=NORAMAN Integral(Ultrafine) M062X EmpiricalDispersion=GD3 
 def2SVP
 ----------------------------------------------------------------------
 1/18=20,19=15,26=4,38=1/1,3;
 2/9=110,12=2,17=6,18=5,40=1/2;
 3/5=43,7=101,11=2,25=1,30=1,71=1,74=-55,75=-5,124=31/1,2,3;
 4//1;
 5/5=2,38=5/2;
 6/7=2,8=2,9=2,10=2,28=1/1;
 7//1,2,3,16;
 1/18=20,19=15,26=4/3(2);
 2/9=110/2;
 99//99;
 2/9=110/2;
 3/5=43,7=101,11=2,25=1,30=1,71=1,74=-55,75=-5,124=31/1,2,3;
 4/5=5,16=3,69=1/1;
 5/5=2,38=5/2;
 7//1,2,3,16;
 1/18=20,19=15,26=4/3(-5);
 2/9=110/2;
 6/7=2,8=2,9=2,10=2,19=2,28=1/1;
 99/9=1/99;
 -----------------------
 vsa3_crest_conformers-3
 -----------------------
 Symbolic Z-matrix:
 Charge = -1 Multiplicity = 1
 O                     2.87573   1.4527    0.03986 
 C                     2.88372   0.20999  -0.02077 
 N                     4.10494  -0.45952  -0.10487 
 C                     5.34818   0.20742   0.18697 
 C                     1.75293  -0.63881  -0.06061 
 N                     0.51915  -0.17798  -0.03444 
 C                    -0.52143  -0.95897  -0.06685 
 C                    -1.85149  -0.45448  -0.03193 
 C                    -2.95697  -1.3223   -0.06895 
 C                    -4.24657  -0.8374   -0.03521 
 C                    -4.48388   0.52747   0.03646 
 C                    -3.40356   1.40193   0.07394 
 C                    -2.11306   0.9265    0.04073 
 H                     4.08103  -1.4528    0.06428 
 H                     6.11811  -0.11253  -0.51859 
 H                     5.69286   0.01407   1.21036 
 H                     5.16949   1.27639   0.0729 
 H                     1.93634  -1.73191  -0.11389 
 H                    -0.39864  -2.06046  -0.12374 
 H                    -2.77971  -2.39007  -0.12509 
 H                    -5.07998  -1.5285   -0.06511 
 H                    -5.49625   0.9061    0.06277 
 H                    -3.57965   2.46885   0.12971 
 H                    -1.26564   1.59572   0.06898 
 

 GradGradGradGradGradGradGradGradGradGradGradGradGradGradGradGradGradGrad
 Berny optimization.
 Initialization pass.
                           ----------------------------
                           !    Initial Parameters    !
                           ! (Angstroms and Degrees)  !
 --------------------------                            --------------------------
 ! Name  Definition              Value          Derivative Info.                !
 --------------------------------------------------------------------------------
 ! R1    R(1,2)                  1.2442         estimate D2E/DX2                !
 ! R2    R(2,3)                  1.3952         estimate D2E/DX2                !
 ! R3    R(2,5)                  1.4145         estimate D2E/DX2                !
 ! R4    R(3,4)                  1.4407         estimate D2E/DX2                !
 ! R5    R(3,14)                 1.0079         estimate D2E/DX2                !
 ! R6    R(4,15)                 1.0922         estimate D2E/DX2                !
 ! R7    R(4,16)                 1.097          estimate D2E/DX2                !
 ! R8    R(4,17)                 1.0898         estimate D2E/DX2                !
 ! R9    R(5,6)                  1.3173         estimate D2E/DX2                !
 ! R10   R(5,18)                 1.1097         estimate D2E/DX2                !
 ! R11   R(6,7)                  1.3015         estimate D2E/DX2                !
 ! R12   R(7,8)                  1.423          estimate D2E/DX2                !
 ! R13   R(7,19)                 1.1098         estimate D2E/DX2                !
 ! R14   R(8,9)                  1.4059         estimate D2E/DX2                !
 ! R15   R(8,13)                 1.4074         estimate D2E/DX2                !
 ! R16   R(9,10)                 1.3782         estimate D2E/DX2                !
 ! R17   R(9,20)                 1.0838         estimate D2E/DX2                !
 ! R18   R(10,11)                1.3872         estimate D2E/DX2                !
 ! R19   R(10,21)                1.0831         estimate D2E/DX2                !
 ! R20   R(11,12)                1.3904         estimate D2E/DX2                !
 ! R21   R(11,22)                1.0812         estimate D2E/DX2                !
 ! R22   R(12,13)                1.3757         estimate D2E/DX2                !
 ! R23   R(12,23)                1.0828         estimate D2E/DX2                !
 ! R24   R(13,24)                1.0802         estimate D2E/DX2                !
 ! A1    A(1,2,3)              119.1981         estimate D2E/DX2                !
 ! A2    A(1,2,5)              126.5551         estimate D2E/DX2                !
 ! A3    A(3,2,5)              114.2101         estimate D2E/DX2                !
 ! A4    A(2,3,4)              121.3969         estimate D2E/DX2                !
 ! A5    A(2,3,14)             116.2334         estimate D2E/DX2                !
 ! A6    A(4,3,14)             116.2765         estimate D2E/DX2                !
 ! A7    A(3,4,15)             109.9888         estimate D2E/DX2                !
 ! A8    A(3,4,16)             112.241          estimate D2E/DX2                !
 ! A9    A(3,4,17)             106.941          estimate D2E/DX2                !
 ! A10   A(15,4,16)            109.2386         estimate D2E/DX2                !
 ! A11   A(15,4,17)            109.591          estimate D2E/DX2                !
 ! A12   A(16,4,17)            108.7863         estimate D2E/DX2                !
 ! A13   A(2,5,6)              122.5661         estimate D2E/DX2                !
 ! A14   A(2,5,18)             117.4093         estimate D2E/DX2                !
 ! A15   A(6,5,18)             120.0245         estimate D2E/DX2                !
 ! A16   A(5,6,7)              122.5771         estimate D2E/DX2                !
 ! A17   A(6,7,8)              122.2753         estimate D2E/DX2                !
 ! A18   A(6,7,19)             120.5586         estimate D2E/DX2                !
 ! A19   A(8,7,19)             117.1661         estimate D2E/DX2                !
 ! A20   A(7,8,9)              121.0302         estimate D2E/DX2                !
 ! A21   A(7,8,13)             121.5247         estimate D2E/DX2                !
 ! A22   A(9,8,13)             117.4451         estimate D2E/DX2                !
 ! A23   A(8,9,10)             121.1952         estimate D2E/DX2                !
 ! A24   A(8,9,20)             118.7429         estimate D2E/DX2                !
 ! A25   A(10,9,20)            120.0619         estimate D2E/DX2                !
 ! A26   A(9,10,11)            120.4991         estimate D2E/DX2                !
 ! A27   A(9,10,21)            119.6595         estimate D2E/DX2                !
 ! A28   A(11,10,21)           119.8415         estimate D2E/DX2                !
 ! A29   A(10,11,12)           119.162          estimate D2E/DX2                !
 ! A30   A(10,11,22)           120.3981         estimate D2E/DX2                !
 ! A31   A(12,11,22)           120.4399         estimate D2E/DX2                !
 ! A32   A(11,12,13)           120.7218         estimate D2E/DX2                !
 ! A33   A(11,12,23)           119.6528         estimate D2E/DX2                !
 ! A34   A(13,12,23)           119.6254         estimate D2E/DX2                !
 ! A35   A(8,13,12)            120.9769         estimate D2E/DX2                !
 ! A36   A(8,13,24)            117.6105         estimate D2E/DX2                !
 ! A37   A(12,13,24)           121.4125         estimate D2E/DX2                !
 ! D1    D(1,2,3,4)             14.6676         estimate D2E/DX2                !
 ! D2    D(1,2,3,14)           166.1846         estimate D2E/DX2                !
 ! D3    D(5,2,3,4)           -167.3918         estimate D2E/DX2                !
 ! D4    D(5,2,3,14)           -15.8748         estimate D2E/DX2                !
 ! D5    D(1,2,5,6)             -0.1023         estimate D2E/DX2                !
 ! D6    D(1,2,5,18)          -179.9829         estimate D2E/DX2                !
 ! D7    D(3,2,5,6)           -177.8643         estimate D2E/DX2                !
 ! D8    D(3,2,5,18)             2.2551         estimate D2E/DX2                !
 ! D9    D(2,3,4,15)          -140.4377         estimate D2E/DX2                !
 ! D10   D(2,3,4,16)            97.7219         estimate D2E/DX2                !
 ! D11   D(2,3,4,17)           -21.505          estimate D2E/DX2                !
 ! D12   D(14,3,4,15)           68.0568         estimate D2E/DX2                !
 ! D13   D(14,3,4,16)          -53.7836         estimate D2E/DX2                !
 ! D14   D(14,3,4,17)         -173.0105         estimate D2E/DX2                !
 ! D15   D(2,5,6,7)           -179.7784         estimate D2E/DX2                !
 ! D16   D(18,5,6,7)             0.0992         estimate D2E/DX2                !
 ! D17   D(5,6,7,8)            179.698          estimate D2E/DX2                !
 ! D18   D(5,6,7,19)            -0.3063         estimate D2E/DX2                !
 ! D19   D(6,7,8,9)            179.969          estimate D2E/DX2                !
 ! D20   D(6,7,8,13)            -0.0321         estimate D2E/DX2                !
 ! D21   D(19,7,8,9)            -0.0268         estimate D2E/DX2                !
 ! D22   D(19,7,8,13)          179.9721         estimate D2E/DX2                !
 ! D23   D(7,8,9,10)           179.9951         estimate D2E/DX2                !
 ! D24   D(7,8,9,20)            -0.0089         estimate D2E/DX2                !
 ! D25   D(13,8,9,10)           -0.0038         estimate D2E/DX2                !
 ! D26   D(13,8,9,20)          179.9922         estimate D2E/DX2                !
 ! D27   D(7,8,13,12)         -179.9976         estimate D2E/DX2                !
 ! D28   D(7,8,13,24)            0.021          estimate D2E/DX2                !
 ! D29   D(9,8,13,12)            0.0013         estimate D2E/DX2                !
 ! D30   D(9,8,13,24)         -179.9801         estimate D2E/DX2                !
 ! D31   D(8,9,10,11)            0.0037         estimate D2E/DX2                !
 ! D32   D(8,9,10,21)          179.9941         estimate D2E/DX2                !
 ! D33   D(20,9,10,11)        -179.9922         estimate D2E/DX2                !
 ! D34   D(20,9,10,21)          -0.0018         estimate D2E/DX2                !
 ! D35   D(9,10,11,12)          -0.0012         estimate D2E/DX2                !
 ! D36   D(9,10,11,22)         179.9955         estimate D2E/DX2                !
 ! D37   D(21,10,11,12)       -179.9915         estimate D2E/DX2                !
 ! D38   D(21,10,11,22)          0.0052         estimate D2E/DX2                !
 ! D39   D(10,11,12,13)         -0.0012         estimate D2E/DX2                !
 ! D40   D(10,11,12,23)        179.9884         estimate D2E/DX2                !
 ! D41   D(22,11,12,13)       -179.998          estimate D2E/DX2                !
 ! D42   D(22,11,12,23)         -0.0083         estimate D2E/DX2                !
 ! D43   D(11,12,13,8)           0.0011         estimate D2E/DX2                !
 ! D44   D(11,12,13,24)        179.9819         estimate D2E/DX2                !
 ! D45   D(23,12,13,8)        -179.9886         estimate D2E/DX2                !
 ! D46   D(23,12,13,24)         -0.0078         estimate D2E/DX2                !
 --------------------------------------------------------------------------------
 Trust Radius=3.00D-01 FncErr=1.00D-07 GrdErr=1.00D-06 EigMax=2.50D+02 EigMin=1.00D-04
 Number of steps in this run=    117 maximum allowed number of steps=    144.
 GradGradGradGradGradGradGradGradGradGradGradGradGradGradGradGradGradGrad

                          Input orientation:                          
 ---------------------------------------------------------------------
 Center     Atomic      Atomic             Coordinates (Angstroms)
 Number     Number       Type             X           Y           Z
 ---------------------------------------------------------------------
      1          8           0        2.875730    1.452700    0.039860
      2          6           0        2.883720    0.209990   -0.020770
      3          7           0        4.104940   -0.459520   -0.104870
      4          6           0        5.348180    0.207420    0.186970
      5          6           0        1.752930   -0.638810   -0.060610
      6          7           0        0.519150   -0.177980   -0.034440
      7          6           0       -0.521430   -0.958970   -0.066850
      8          6           0       -1.851490   -0.454480   -0.031930
      9          6           0       -2.956970   -1.322300   -0.068950
     10          6           0       -4.246570   -0.837400   -0.035210
     11          6           0       -4.483880    0.527470    0.036460
     12          6           0       -3.403560    1.401930    0.073940
     13          6           0       -2.113060    0.926500    0.040730
     14          1           0        4.081030   -1.452800    0.064280
     15          1           0        6.118110   -0.112530   -0.518590
     16          1           0        5.692860    0.014070    1.210360
     17          1           0        5.169490    1.276390    0.072900
     18          1           0        1.936340   -1.731910   -0.113890
     19          1           0       -0.398640   -2.060460   -0.123740
     20          1           0       -2.779710   -2.390070   -0.125090
     21          1           0       -5.079980   -1.528500   -0.065110
     22          1           0       -5.496250    0.906100    0.062770
     23          1           0       -3.579650    2.468850    0.129710
     24          1           0       -1.265640    1.595720    0.068980
 ---------------------------------------------------------------------
                    Distance matrix (angstroms):
                    1          2          3          4          5
     1  O    0.000000
     2  C    1.244214   0.000000
     3  N    2.277826   1.395240   0.000000
     4  C    2.772250   2.473201   1.440703   0.000000
     5  C    2.375960   1.414473   2.359249   3.701787   0.000000
     6  N    2.866724   2.396226   3.597515   4.849442   1.317294
     7  C    4.167521   3.600505   4.653407   5.989759   2.296792
     8  C    5.097950   4.781617   5.956879   7.233345   3.609244
     9  C    6.460097   6.038534   7.114510   8.448731   4.759242
    10  C    7.481801   7.206821   8.360345   9.654027   6.002840
    11  C    7.417541   7.374659   8.646499   9.838419   6.345662
    12  C    6.279588   6.399967   7.737864   8.833605   5.547262
    13  C    5.016464   5.048265   6.372266   7.497237   4.172091
    14  H    3.145676   2.050769   1.007863   2.092141   2.469459
    15  H    3.643465   3.288331   2.084327   1.092234   4.420578
    16  H    3.372825   3.073326   2.115563   1.097049   4.191022
    17  H    2.300763   2.524030   2.044077   1.089788   3.919018
    18  H    3.323828   2.162678   2.514336   3.936009   1.109660
    19  H    4.805263   3.992422   4.779707   6.185932   2.579598
    20  H    6.839451   6.232627   7.150233   8.538556   4.859619
    21  H    8.496581   8.151370   9.247002  10.574662   6.890590
    22  H    8.389836   8.409248   9.699272  10.867624   7.413001
    23  H    6.535485   6.848375   8.226986   9.209967   6.174964
    24  H    4.143941   4.375556   5.753031   6.758988   3.757883
                    6          7          8          9         10
     6  N    0.000000
     7  C    1.301462   0.000000
     8  C    2.386712   1.422951   0.000000
     9  C    3.659791   2.462492   1.405905   0.000000
    10  C    4.811125   3.727257   2.425499   1.378163   0.000000
    11  C    5.053018   4.233342   2.810406   2.400878   1.387200
    12  C    4.230309   3.728317   2.422063   2.764288   2.395241
    13  C    2.855531   2.469789   1.407410   2.404437   2.769291
    14  H    3.784429   4.630734   6.016701   7.040470   8.350900
    15  H    5.620235   6.708504   7.991764   9.166395  10.401235
    16  H    5.324818   6.418370   7.660290   8.845455  10.053294
    17  H    4.873641   6.115794   7.231947   8.533034   9.651009
    18  H    2.104623   2.576875   3.998275   4.910630   6.247777
    19  H    2.096197   1.109772   2.167573   2.663256   4.038599
    20  H    3.972913   2.674185   2.148669   1.083838   2.137882
    21  H    5.759783   4.593990   3.402612   2.133004   1.083091
    22  H    6.113077   5.314520   3.891583   3.380985   2.147345
    23  H    4.881886   4.597966   3.399783   3.847079   3.376873
    24  H    2.518369   2.664346   2.134648   3.375568   3.849269
                   11         12         13         14         15
    11  C    0.000000
    12  C    1.390387   0.000000
    13  C    2.404169   1.375691   0.000000
    14  H    8.790900   8.010535   6.635388   0.000000
    15  H   10.635783   9.659549   8.315322   2.507141   0.000000
    16  H   10.257078   9.271594   7.945625   2.462357   1.784974
    17  H    9.682446   8.573969   7.291021   2.938247   1.782930
    18  H    6.807836   6.194414   4.846513   2.170102   4.502596
    19  H    4.838619   4.588765   3.447929   4.524604   6.813103
    20  H    3.382652   3.848125   3.386968   6.927055   9.193108
    21  H    2.143050   3.378926   3.852381   9.162236  11.296364
    22  H    1.081178   2.150657   3.383323   9.863504  11.673429
    23  H    2.143661   1.082791   2.130175   8.606372  10.056359
    24  H    3.391059   2.146691   1.080173   6.154704   7.601521
                   16         17         18         19         20
    16  H    0.000000
    17  H    1.777972   0.000000
    18  H    4.348968   4.420183   0.000000
    19  H    6.571900   6.494406   2.358002   0.000000
    20  H    8.907736   8.756250   4.761767   2.403776   0.000000
    21  H   10.957209  10.627233   7.019437   4.711832   2.457060
    22  H   11.283123  10.672171   7.888834   5.900923   4.275467
    23  H    9.652626   8.830212   6.937714   5.540551   4.930916
    24  H    7.226693   6.443049   4.621606   3.762510   4.268090
                   21         22         23         24
    21  H    0.000000
    22  H    2.473239   0.000000
    23  H    4.274079   2.473868   0.000000
    24  H    4.932334   4.286453   2.474002   0.000000
 Stoichiometry    C10H11N2O(1-)
 Framework group  C1[X(C10H11N2O)]
 Deg. of freedom    66
 Full point group                 C1      NOp   1
 Largest Abelian subgroup         C1      NOp   1
 Largest concise Abelian subgroup C1      NOp   1
                         Standard orientation:                         
 ---------------------------------------------------------------------
 Center     Atomic      Atomic             Coordinates (Angstroms)
 Number     Number       Type             X           Y           Z
 ---------------------------------------------------------------------
      1          8           0        2.879258    1.413503   -0.058313
      2          6           0        2.863396    0.169408   -0.051799
      3          7           0        4.071196   -0.526982   -0.106171
      4          6           0        5.328645    0.130724    0.142567
      5          6           0        1.716551   -0.658441   -0.039691
      6          7           0        0.491884   -0.173270   -0.031830
      7          6           0       -0.563442   -0.934751   -0.016448
      8          6           0       -1.883490   -0.403672   -0.001691
      9          6           0       -3.005372   -1.250843    0.014124
     10          6           0       -4.285345   -0.740162    0.028544
     11          6           0       -4.496381    0.630891    0.027687
     12          6           0       -3.399526    1.485199    0.012108
     13          6           0       -2.118470    0.983984   -0.002299
     14          1           0        4.029617   -1.509063    0.116488
     15          1           0        6.087875   -0.241499   -0.548805
     16          1           0        5.676142   -0.013786    1.173042
     17          1           0        5.169444    1.195228   -0.028094
     18          1           0        1.878946   -1.756143   -0.034856
     19          1           0       -0.461836   -2.039860   -0.014440
     20          1           0       -2.848665   -2.323293    0.014769
     21          1           0       -5.131828   -1.415742    0.040469
     22          1           0       -5.501233    1.029753    0.038941
     23          1           0       -3.555080    2.556758    0.011134
     24          1           0       -1.258403    1.637362   -0.014764
 ---------------------------------------------------------------------
 Rotational constants (GHZ):           3.2867101           0.2729592           0.2525952
 Standard basis: def2SVP (5D, 7F)
 There are   250 symmetry adapted cartesian basis functions of A   symmetry.
 There are   237 symmetry adapted basis functions of A   symmetry.
   237 basis functions,   402 primitive gaussians,   250 cartesian basis functions
    47 alpha electrons       47 beta electrons
       nuclear repulsion energy       691.5958075683 Hartrees.
 NAtoms=   24 NActive=   24 NUniq=   24 SFac= 1.00D+00 NAtFMM=   60 NAOKFM=F Big=F
 Integral buffers will be    131072 words long.
 Raffenetti 2 integral format.
 Two-electron integral symmetry is turned on.
 Nuclear repulsion after empirical dispersion term =      691.5950140860 Hartrees.
 One-electron integrals computed using PRISM.
   1 Symmetry operations used in ECPInt.
 ECPInt:  NShTT=    6216 NPrTT=   22568 LenC2=    5558 LenP2D=   14730.
 LDataN:  DoStor=T MaxTD1= 4 Len=   56
 NBasis=   237 RedAO= T EigKep=  2.83D-04  NBF=   237
 NBsUse=   237 1.00D-06 EigRej= -1.00D+00 NBFU=   237
 ExpMin= 1.22D-01 ExpMax= 2.27D+03 ExpMxC= 3.41D+02 IAcc=3 IRadAn=         5 AccDes= 0.00D+00
 Harris functional with IExCor= 1009 and IRadAn=       5 diagonalized for initial guess.
 HarFok:  IExCor= 1009 AccDes= 0.00D+00 IRadAn=         5 IDoV= 1 UseB2=F ITyADJ=14
 ICtDFT=  3500011 ScaDFX=  1.000000  1.000000  1.000000  1.000000
 FoFCou: FMM=F IPFlag=           0 FMFlag=      100000 FMFlg1=           0
         NFxFlg=           0 DoJE=T BraDBF=F KetDBF=T FulRan=T
         wScrn=  0.000000 ICntrl=       500 IOpCl=  0 I1Cent=   200000004 NGrid=           0
         NMat0=    1 NMatS0=      1 NMatT0=    0 NMatD0=    1 NMtDS0=    0 NMtDT0=    0
 Petite list used in FoFCou.
 Requested convergence on RMS density matrix=1.00D-08 within 128 cycles.
 Requested convergence on MAX density matrix=1.00D-06.
 Requested convergence on             energy=1.00D-06.
 No special actions if energy rises.
 Integral accuracy reduced to 1.0D-05 until final iterations.
 Initial convergence to 1.0D-05 achieved.  Increase integral accuracy.
 SCF Done:  E(RM062X) =  -571.765629415     A.U. after   15 cycles
            NFock= 15  Conv=0.73D-08     -V/T= 2.0094

 **********************************************************************

            Population analysis using the SCF Density.

 **********************************************************************

 Orbital symmetries:
       Occupied  (A) (A) (A) (A) (A) (A) (A) (A) (A) (A) (A) (A)
                 (A) (A) (A) (A) (A) (A) (A) (A) (A) (A) (A) (A)
                 (A) (A) (A) (A) (A) (A) (A) (A) (A) (A) (A) (A)
                 (A) (A) (A) (A) (A) (A) (A) (A) (A) (A) (A)
       Virtual   (A) (A) (A) (A) (A) (A) (A) (A) (A) (A) (A) (A)
                 (A) (A) (A) (A) (A) (A) (A) (A) (A) (A) (A) (A)
                 (A) (A) (A) (A) (A) (A) (A) (A) (A) (A) (A) (A)
                 (A) (A) (A) (A) (A) (A) (A) (A) (A) (A) (A) (A)
                 (A) (A) (A) (A) (A) (A) (A) (A) (A) (A) (A) (A)
                 (A) (A) (A) (A) (A) (A) (A) (A) (A) (A) (A) (A)
                 (A) (A) (A) (A) (A) (A) (A) (A) (A) (A) (A) (A)
                 (A) (A) (A) (A) (A) (A) (A) (A) (A) (A) (A) (A)
                 (A) (A) (A) (A) (A) (A) (A) (A) (A) (A) (A) (A)
                 (A) (A) (A) (A) (A) (A) (A) (A) (A) (A) (A) (A)
                 (A) (A) (A) (A) (A) (A) (A) (A) (A) (A) (A) (A)
                 (A) (A) (A) (A) (A) (A) (A) (A) (A) (A) (A) (A)
                 (A) (A) (A) (A) (A) (A) (A) (A) (A) (A) (A) (A)
                 (A) (A) (A) (A) (A) (A) (A) (A) (A) (A) (A) (A)
                 (A) (A) (A) (A) (A) (A) (A) (A) (A) (A) (A) (A)
                 (A) (A) (A) (A) (A) (A) (A) (A) (A) (A)
 The electronic state is 1-A.
 Alpha  occ. eigenvalues --  -19.41033 -14.61898 -14.59121 -10.47173 -10.45474
 Alpha  occ. eigenvalues --  -10.42125 -10.41740 -10.41149 -10.40968 -10.40859
 Alpha  occ. eigenvalues --  -10.39979 -10.39180 -10.38085  -0.95459  -0.85493
 Alpha  occ. eigenvalues --   -0.85112  -0.80993  -0.70983  -0.69484  -0.66813
 Alpha  occ. eigenvalues --   -0.61062  -0.55358  -0.54076  -0.50348  -0.47971
 Alpha  occ. eigenvalues --   -0.44343  -0.42552  -0.39975  -0.38841  -0.38061
 Alpha  occ. eigenvalues --   -0.36900  -0.35022  -0.34544  -0.33686  -0.31858
 Alpha  occ. eigenvalues --   -0.31510  -0.30141  -0.29614  -0.26727  -0.25728
 Alpha  occ. eigenvalues --   -0.25249  -0.17412  -0.16995  -0.16190  -0.15516
 Alpha  occ. eigenvalues --   -0.14561  -0.04022
 Alpha virt. eigenvalues --    0.14716   0.16942   0.21541   0.22327   0.23953
 Alpha virt. eigenvalues --    0.25013   0.25379   0.27700   0.28234   0.28526
 Alpha virt. eigenvalues --    0.30291   0.30838   0.32812   0.33442   0.35336
 Alpha virt. eigenvalues --    0.36274   0.37891   0.41112   0.45056   0.45803
 Alpha virt. eigenvalues --    0.46931   0.48377   0.50272   0.50510   0.52646
 Alpha virt. eigenvalues --    0.53898   0.56723   0.57961   0.58363   0.59581
 Alpha virt. eigenvalues --    0.61202   0.61819   0.62608   0.65057   0.65062
 Alpha virt. eigenvalues --    0.66017   0.66534   0.68424   0.68675   0.69375
 Alpha virt. eigenvalues --    0.70448   0.71887   0.71937   0.72699   0.76291
 Alpha virt. eigenvalues --    0.78117   0.78919   0.80181   0.81391   0.82464
 Alpha virt. eigenvalues --    0.82881   0.83756   0.83990   0.84403   0.85061
 Alpha virt. eigenvalues --    0.86530   0.88130   0.88229   0.88525   0.89688
 Alpha virt. eigenvalues --    0.90699   0.91294   0.92895   0.93804   0.94316
 Alpha virt. eigenvalues --    0.96999   0.97794   0.98382   1.00531   1.01720
 Alpha virt. eigenvalues --    1.02493   1.03542   1.05507   1.10616   1.11801
 Alpha virt. eigenvalues --    1.12810   1.21576   1.23058   1.25086   1.27616
 Alpha virt. eigenvalues --    1.29442   1.30241   1.32947   1.34746   1.36460
 Alpha virt. eigenvalues --    1.38964   1.39664   1.43820   1.44369   1.45419
 Alpha virt. eigenvalues --    1.45607   1.46412   1.47003   1.47673   1.50265
 Alpha virt. eigenvalues --    1.51798   1.53679   1.58388   1.61305   1.64671
 Alpha virt. eigenvalues --    1.67921   1.68597   1.70140   1.72786   1.80272
 Alpha virt. eigenvalues --    1.84276   1.85692   1.85716   1.86765   1.91152
 Alpha virt. eigenvalues --    1.92694   1.93354   1.93874   1.94783   1.94969
 Alpha virt. eigenvalues --    1.95125   1.95172   1.95568   1.97943   1.98651
 Alpha virt. eigenvalues --    1.99872   2.03928   2.05715   2.07595   2.08825
 Alpha virt. eigenvalues --    2.09794   2.11606   2.12335   2.12940   2.15469
 Alpha virt. eigenvalues --    2.15844   2.16955   2.17537   2.20238   2.22786
 Alpha virt. eigenvalues --    2.24825   2.28156   2.29715   2.29977   2.31238
 Alpha virt. eigenvalues --    2.31768   2.32596   2.34649   2.37385   2.39539
 Alpha virt. eigenvalues --    2.44011   2.46768   2.47125   2.49348   2.51342
 Alpha virt. eigenvalues --    2.52804   2.54453   2.58308   2.59097   2.64327
 Alpha virt. eigenvalues --    2.68185   2.71197   2.74786   2.77246   2.78362
 Alpha virt. eigenvalues --    2.80282   2.81956   2.84309   2.85471   2.87009
 Alpha virt. eigenvalues --    2.88933   2.91015   2.93799   2.94205   2.98916
 Alpha virt. eigenvalues --    3.00359   3.01270   3.03772   3.05060   3.06562
 Alpha virt. eigenvalues --    3.07432   3.09149   3.09913   3.15844   3.24195
 Alpha virt. eigenvalues --    3.28771   3.33298   3.36464   3.39746   3.44972
 Alpha virt. eigenvalues --    3.56289   3.65715   3.78120   3.84253   3.89308
          Condensed to atoms (all electrons):
               1          2          3          4          5          6
     1  O    7.835801   0.742131  -0.120467  -0.012813  -0.111293   0.001557
     2  C    0.742131   4.767799   0.273352  -0.031949   0.179474  -0.065475
     3  N   -0.120467   0.273352   6.742991   0.340063  -0.150574   0.003995
     4  C   -0.012813  -0.031949   0.340063   4.495610   0.009050  -0.000171
     5  C   -0.111293   0.179474  -0.150574   0.009050   5.490335   0.501604
     6  N    0.001557  -0.065475   0.003995  -0.000171   0.501604   6.210728
     7  C    0.000145   0.013276  -0.000152   0.000012  -0.113383   0.582911
     8  C    0.000030   0.000061  -0.000002  -0.000000   0.019035  -0.119294
     9  C    0.000000   0.000007  -0.000000   0.000000  -0.000107   0.004896
    10  C   -0.000000   0.000000  -0.000000  -0.000000   0.000012  -0.000297
    11  C    0.000000   0.000000   0.000000   0.000000  -0.000001   0.000030
    12  C   -0.000000  -0.000008  -0.000000  -0.000000  -0.000006   0.001310
    13  C   -0.000076  -0.000299  -0.000000  -0.000000   0.000214   0.009272
    14  H    0.005032   0.002667   0.332795  -0.032928  -0.016357   0.000040
    15  H    0.000328   0.004932  -0.037286   0.395184  -0.000363   0.000005
    16  H   -0.000000   0.002068  -0.041309   0.391743   0.001094   0.000005
    17  H    0.039844  -0.008024  -0.037551   0.384350   0.004587  -0.000022
    18  H    0.003265  -0.105841   0.003547  -0.000211   0.388682  -0.041808
    19  H   -0.000026  -0.002052   0.000047   0.000001  -0.021584  -0.053639
    20  H   -0.000000  -0.000003   0.000000   0.000000  -0.000040   0.000162
    21  H   -0.000000  -0.000000  -0.000000   0.000000  -0.000000   0.000003
    22  H   -0.000000  -0.000000   0.000000   0.000000   0.000000   0.000000
    23  H   -0.000000  -0.000000  -0.000000   0.000000   0.000001  -0.000027
    24  H    0.000503  -0.000225   0.000010  -0.000000  -0.001338   0.028325
               7          8          9         10         11         12
     1  O    0.000145   0.000030   0.000000  -0.000000   0.000000  -0.000000
     2  C    0.013276   0.000061   0.000007   0.000000   0.000000  -0.000008
     3  N   -0.000152  -0.000002  -0.000000  -0.000000   0.000000  -0.000000
     4  C    0.000012  -0.000000   0.000000  -0.000000   0.000000  -0.000000
     5  C   -0.113383   0.019035  -0.000107   0.000012  -0.000001  -0.000006
     6  N    0.582911  -0.119294   0.004896  -0.000297   0.000030   0.001310
     7  C    5.162235   0.278022  -0.112750   0.015545  -0.000759   0.019434
     8  C    0.278022   5.450263   0.278617   0.100304  -0.159627   0.098422
     9  C   -0.112750   0.278617   5.252838   0.283003   0.092351  -0.158248
    10  C    0.015545   0.100304   0.283003   5.102320   0.251697   0.104740
    11  C   -0.000759  -0.159627   0.092351   0.251697   5.245701   0.225175
    12  C    0.019434   0.098422  -0.158248   0.104740   0.225175   5.169918
    13  C   -0.085536   0.208857   0.053895  -0.146661   0.097258   0.246146
    14  H   -0.000051  -0.000008  -0.000000   0.000000  -0.000000   0.000000
    15  H   -0.000000  -0.000000  -0.000000   0.000000  -0.000000   0.000000
    16  H   -0.000002   0.000000   0.000000   0.000000  -0.000000   0.000000
    17  H    0.000002  -0.000000  -0.000000   0.000000  -0.000000  -0.000000
    18  H   -0.014428  -0.001277  -0.000051  -0.000001  -0.000000   0.000007
    19  H    0.408078  -0.115647  -0.018846   0.000562  -0.000081  -0.000335
    20  H   -0.020130  -0.072524   0.443882  -0.083839   0.016224  -0.002145
    21  H   -0.000384   0.017067  -0.079660   0.446792  -0.085784   0.016357
    22  H    0.000047  -0.001656   0.016366  -0.080974   0.446461  -0.079954
    23  H   -0.000419   0.016806  -0.001962   0.016665  -0.088083   0.451424
    24  H   -0.023173  -0.072691   0.016631  -0.002160   0.015439  -0.086213
              13         14         15         16         17         18
     1  O   -0.000076   0.005032   0.000328  -0.000000   0.039844   0.003265
     2  C   -0.000299   0.002667   0.004932   0.002068  -0.008024  -0.105841
     3  N   -0.000000   0.332795  -0.037286  -0.041309  -0.037551   0.003547
     4  C   -0.000000  -0.032928   0.395184   0.391743   0.384350  -0.000211
     5  C    0.000214  -0.016357  -0.000363   0.001094   0.004587   0.388682
     6  N    0.009272   0.000040   0.000005   0.000005  -0.000022  -0.041808
     7  C   -0.085536  -0.000051  -0.000000  -0.000002   0.000002  -0.014428
     8  C    0.208857  -0.000008  -0.000000   0.000000  -0.000000  -0.001277
     9  C    0.053895  -0.000000  -0.000000   0.000000  -0.000000  -0.000051
    10  C   -0.146661   0.000000   0.000000   0.000000   0.000000  -0.000001
    11  C    0.097258  -0.000000  -0.000000  -0.000000  -0.000000  -0.000000
    12  C    0.246146   0.000000   0.000000   0.000000  -0.000000   0.000007
    13  C    5.233545   0.000001   0.000000   0.000000   0.000000   0.000379
    14  H    0.000001   0.600947  -0.002764  -0.006811   0.008362   0.005587
    15  H    0.000000  -0.002764   0.703757  -0.047924  -0.018522  -0.000032
    16  H    0.000000  -0.006811  -0.047924   0.720406  -0.022726   0.000035
    17  H    0.000000   0.008362  -0.018522  -0.022726   0.593774  -0.000407
    18  H    0.000379   0.005587  -0.000032   0.000035  -0.000407   0.821376
    19  H    0.019279   0.000070   0.000000   0.000000  -0.000000   0.021770
    20  H    0.017800   0.000000  -0.000000   0.000000  -0.000000   0.000048
    21  H   -0.001938   0.000000  -0.000000  -0.000000   0.000000   0.000000
    22  H    0.015612   0.000000   0.000000   0.000000  -0.000000   0.000000
    23  H   -0.079083   0.000000  -0.000000  -0.000000   0.000000  -0.000000
    24  H    0.459641  -0.000001   0.000000   0.000000  -0.000001   0.000350
              19         20         21         22         23         24
     1  O   -0.000026  -0.000000  -0.000000  -0.000000  -0.000000   0.000503
     2  C   -0.002052  -0.000003  -0.000000  -0.000000  -0.000000  -0.000225
     3  N    0.000047   0.000000  -0.000000   0.000000  -0.000000   0.000010
     4  C    0.000001   0.000000   0.000000   0.000000   0.000000  -0.000000
     5  C   -0.021584  -0.000040  -0.000000   0.000000   0.000001  -0.001338
     6  N   -0.053639   0.000162   0.000003   0.000000  -0.000027   0.028325
     7  C    0.408078  -0.020130  -0.000384   0.000047  -0.000419  -0.023173
     8  C   -0.115647  -0.072524   0.017067  -0.001656   0.016806  -0.072691
     9  C   -0.018846   0.443882  -0.079660   0.016366  -0.001962   0.016631
    10  C    0.000562  -0.083839   0.446792  -0.080974   0.016665  -0.002160
    11  C   -0.000081   0.016224  -0.085784   0.446461  -0.088083   0.015439
    12  C   -0.000335  -0.002145   0.016357  -0.079954   0.451424  -0.086213
    13  C    0.019279   0.017800  -0.001938   0.015612  -0.079083   0.459641
    14  H    0.000070   0.000000   0.000000   0.000000   0.000000  -0.000001
    15  H    0.000000  -0.000000  -0.000000   0.000000  -0.000000   0.000000
    16  H    0.000000   0.000000  -0.000000   0.000000  -0.000000   0.000000
    17  H   -0.000000  -0.000000   0.000000  -0.000000   0.000000  -0.000001
    18  H    0.021770   0.000048   0.000000   0.000000  -0.000000   0.000350
    19  H    0.833391   0.008958   0.000018   0.000000   0.000008   0.001706
    20  H    0.008958   0.745655  -0.015190  -0.000348   0.000050  -0.000219
    21  H    0.000018  -0.015190   0.752768  -0.014781  -0.000367   0.000040
    22  H    0.000000  -0.000348  -0.014781   0.753640  -0.014562  -0.000257
    23  H    0.000008   0.000050  -0.000367  -0.014562   0.740608  -0.013352
    24  H    0.001706  -0.000219   0.000040  -0.000257  -0.013352   0.670987
 Mulliken charges:
               1
     1  O   -0.383960
     2  C    0.228109
     3  N   -0.309460
     4  C    0.062059
     5  C   -0.179042
     6  N   -0.064110
     7  C   -0.108541
     8  C    0.075244
     9  C   -0.070861
    10  C   -0.007709
    11  C   -0.056000
    12  C   -0.006025
    13  C   -0.048306
    14  H    0.103419
    15  H    0.002684
    16  H    0.003422
    17  H    0.056334
    18  H   -0.080991
    19  H   -0.081680
    20  H   -0.038341
    21  H   -0.034943
    22  H   -0.039595
    23  H   -0.027705
    24  H    0.005997
 Sum of Mulliken charges =  -1.00000
 Mulliken charges with hydrogens summed into heavy atoms:
               1
     1  O   -0.383960
     2  C    0.228109
     3  N   -0.206041
     4  C    0.124499
     5  C   -0.260032
     6  N   -0.064110
     7  C   -0.190221
     8  C    0.075244
     9  C   -0.109202
    10  C   -0.042652
    11  C   -0.095595
    12  C   -0.033730
    13  C   -0.042309
 Electronic spatial extent (au):  <R**2>=           4183.1134
 Charge=             -1.0000 electrons
 Dipole moment (field-independent basis, Debye):
    X=             -0.4969    Y=             -2.9543    Z=              0.5752  Tot=              3.0505
 Quadrupole moment (field-independent basis, Debye-Ang):
   XX=           -111.5360   YY=            -82.9056   ZZ=            -84.3780
   XY=             -9.3962   XZ=              2.2149   YZ=             -0.4105
 Traceless Quadrupole moment (field-independent basis, Debye-Ang):
   XX=            -18.5961   YY=             10.0342   ZZ=              8.5619
   XY=             -9.3962   XZ=              2.2149   YZ=             -0.4105
 Octapole moment (field-independent basis, Debye-Ang**2):
  XXX=             54.6553  YYY=             -2.9299  ZZZ=              0.1192  XYY=             -0.6325
  XXY=            -30.5481  XXZ=              7.5876  XZZ=             18.9954  YZZ=              3.1849
  YYZ=              0.7314  XYZ=             -1.7266
 Hexadecapole moment (field-independent basis, Debye-Ang**3):
 XXXX=          -5589.3285 YYYY=           -521.3789 ZZZZ=            -98.6586 XXXY=            -60.7342
 XXXZ=             23.1019 YYYX=            -27.9573 YYYZ=             -1.0862 ZZZX=              2.4202
 ZZZY=             -0.9452 XXYY=           -965.6156 XXZZ=           -947.1843 YYZZ=           -111.6479
 XXYZ=             -7.9778 YYXZ=              2.4535 ZZXY=              7.2410
 N-N= 6.915950140860D+02 E-N=-2.726481289001D+03  KE= 5.664220471941D+02
   1 Symmetry operations used in ECPInt.
 ECPInt:  NShTT=    6216 NPrTT=   22568 LenC2=    5558 LenP2D=   14730.
 LDataN:  DoStor=T MaxTD1= 5 Len=  102
 Calling FoFJK, ICntrl=      2127 FMM=F ISym2X=0 I1Cent= 0 IOpClX= 0 NMat=1 NMatS=1 NMatT=0.
 ***** Axes restored to original set *****
 -------------------------------------------------------------------
 Center     Atomic                   Forces (Hartrees/Bohr)
 Number     Number              X              Y              Z
 -------------------------------------------------------------------
      1        8           0.002708759   -0.018534435    0.000071971
      2        6           0.008022858    0.039907894   -0.000493890
      3        7           0.009621065   -0.001600333    0.001197237
      4        6          -0.012383247   -0.005461947   -0.003145711
      5        6          -0.009230196   -0.016867825    0.000085133
      6        7           0.003823804    0.003730190    0.000655252
      7        6           0.006155737   -0.010450594   -0.000690323
      8        6          -0.002516083   -0.000276769   -0.000119298
      9        6           0.002516025   -0.001586594   -0.000080177
     10        6          -0.003526506    0.000123856    0.000037603
     11        6          -0.007289861    0.001583981    0.000146816
     12        6          -0.000674000    0.000969666    0.000044902
     13        6           0.001332990    0.002110938    0.000091042
     14        1          -0.001664207   -0.002968178   -0.000218449
     15        1           0.007308223   -0.000338542   -0.002596958
     16        1           0.004237568    0.000498613    0.005329449
     17        1          -0.001024761    0.004886998   -0.000291679
     18        1          -0.001163798    0.000697065   -0.000328672
     19        1          -0.000129483    0.000762805    0.000117093
     20        1           0.001449810   -0.006814632   -0.000364736
     21        1          -0.005858323   -0.004725930   -0.000204924
     22        1          -0.007452664    0.002696024    0.000187218
     23        1          -0.001051984    0.007528490    0.000395005
     24        1           0.006788273    0.004129262    0.000176096
 -------------------------------------------------------------------
 Cartesian Forces:  Max     0.039907894 RMS     0.006841935

 GradGradGradGradGradGradGradGradGradGradGradGradGradGradGradGradGradGrad
 Berny optimization.
 FormGI is forming the generalized inverse of G from B-inverse, IUseBI=4.
 Internal  Forces:  Max     0.023293857 RMS     0.005122455
 Search for a local minimum.
 Step number   1 out of a maximum of  117
 All quantities printed in internal units (Hartrees-Bohrs-Radians)
 Mixed Optimization -- RFO/linear search
 Second derivative matrix not updated -- first step.
 ITU=  0
     Eigenvalues ---    0.01153   0.01755   0.01785   0.01809   0.01836
     Eigenvalues ---    0.01897   0.01944   0.02049   0.02176   0.02203
     Eigenvalues ---    0.02206   0.02208   0.02236   0.02275   0.02286
     Eigenvalues ---    0.02322   0.02332   0.02786   0.02995   0.07428
     Eigenvalues ---    0.07952   0.14854   0.16000   0.16000   0.16000
     Eigenvalues ---    0.16000   0.16000   0.16000   0.16000   0.16000
     Eigenvalues ---    0.16000   0.16000   0.22000   0.22000   0.22000
     Eigenvalues ---    0.22000   0.22306   0.23459   0.24986   0.25000
     Eigenvalues ---    0.25000   0.25000   0.32624   0.32636   0.34011
     Eigenvalues ---    0.34556   0.34837   0.35535   0.35623   0.35659
     Eigenvalues ---    0.35852   0.35973   0.39489   0.41610   0.42019
     Eigenvalues ---    0.42597   0.43304   0.46057   0.46332   0.46419
     Eigenvalues ---    0.46461   0.48237   0.49691   0.62610   0.66789
     Eigenvalues ---    0.85412
 RFO step:  Lambda=-6.57464616D-03 EMin= 1.15335721D-02
 Linear search not attempted -- first point.
 Iteration  1 RMS(Cart)=  0.04963694 RMS(Int)=  0.00061924
 Iteration  2 RMS(Cart)=  0.00115406 RMS(Int)=  0.00009982
 Iteration  3 RMS(Cart)=  0.00000080 RMS(Int)=  0.00009982
 Variable       Old X    -DE/DX   Delta X   Delta X   Delta X     New X
                                 (Linear)    (Quad)   (Total)
    R1        2.35122  -0.01852   0.00000  -0.02152  -0.02152   2.32970
    R2        2.63662   0.00770   0.00000   0.01636   0.01636   2.65298
    R3        2.67297   0.02329   0.00000   0.05299   0.05299   2.72595
    R4        2.72253  -0.00194   0.00000  -0.00483  -0.00483   2.71771
    R5        1.90459   0.00293   0.00000   0.00623   0.00623   1.91081
    R6        2.06402   0.00693   0.00000   0.01967   0.01967   2.08370
    R7        2.07312   0.00621   0.00000   0.01792   0.01792   2.09105
    R8        2.05940   0.00500   0.00000   0.01407   0.01407   2.07347
    R9        2.48932   0.00595   0.00000   0.00940   0.00940   2.49873
   R10        2.09695  -0.00086   0.00000  -0.00260  -0.00260   2.09436
   R11        2.45941   0.01059   0.00000   0.01570   0.01570   2.47511
   R12        2.68899   0.01726   0.00000   0.04043   0.04043   2.72942
   R13        2.09717  -0.00078   0.00000  -0.00233  -0.00233   2.09483
   R14        2.65677   0.00980   0.00000   0.02138   0.02138   2.67815
   R15        2.65962   0.01044   0.00000   0.02290   0.02289   2.68251
   R16        2.60435   0.01420   0.00000   0.02837   0.02837   2.63272
   R17        2.04816   0.00697   0.00000   0.01926   0.01926   2.06742
   R18        2.62143   0.00978   0.00000   0.02043   0.02043   2.64186
   R19        2.04674   0.00753   0.00000   0.02076   0.02076   2.06750
   R20        2.62745   0.01141   0.00000   0.02406   0.02406   2.65151
   R21        2.04313   0.00793   0.00000   0.02171   0.02171   2.06484
   R22        2.59968   0.01288   0.00000   0.02547   0.02547   2.62515
   R23        2.04618   0.00761   0.00000   0.02095   0.02095   2.06713
   R24        2.04123   0.00789   0.00000   0.02153   0.02153   2.06276
    A1        2.08040  -0.00234   0.00000  -0.00861  -0.00897   2.07143
    A2        2.20880   0.00368   0.00000   0.01487   0.01451   2.22331
    A3        1.99334  -0.00131   0.00000  -0.00460  -0.00496   1.98838
    A4        2.11878  -0.00440   0.00000  -0.01865  -0.01864   2.10013
    A5        2.02866   0.00054   0.00000   0.00003   0.00005   2.02870
    A6        2.02941   0.00360   0.00000   0.01980   0.01980   2.04921
    A7        1.91967   0.00461   0.00000   0.02967   0.02947   1.94914
    A8        1.95898   0.00331   0.00000   0.02015   0.01995   1.97893
    A9        1.86647  -0.00171   0.00000  -0.01251  -0.01244   1.85403
   A10        1.90657  -0.00349   0.00000  -0.01696  -0.01736   1.88921
   A11        1.91272  -0.00134   0.00000  -0.00847  -0.00840   1.90432
   A12        1.89868  -0.00146   0.00000  -0.01269  -0.01262   1.88606
   A13        2.13918  -0.00123   0.00000  -0.00541  -0.00541   2.13377
   A14        2.04918   0.00170   0.00000   0.00921   0.00921   2.05839
   A15        2.09482  -0.00047   0.00000  -0.00380  -0.00380   2.09102
   A16        2.13937   0.00688   0.00000   0.02682   0.02682   2.16620
   A17        2.13411   0.00032   0.00000   0.00143   0.00143   2.13554
   A18        2.10414  -0.00012   0.00000  -0.00044  -0.00044   2.10370
   A19        2.04493  -0.00021   0.00000  -0.00099  -0.00099   2.04395
   A20        2.11238   0.00169   0.00000   0.00716   0.00716   2.11953
   A21        2.12101   0.00105   0.00000   0.00468   0.00468   2.12569
   A22        2.04980  -0.00274   0.00000  -0.01183  -0.01184   2.03797
   A23        2.11525   0.00191   0.00000   0.00769   0.00769   2.12294
   A24        2.07246  -0.00128   0.00000  -0.00578  -0.00578   2.06667
   A25        2.09548  -0.00063   0.00000  -0.00191  -0.00191   2.09357
   A26        2.10311   0.00103   0.00000   0.00483   0.00484   2.10794
   A27        2.08845  -0.00041   0.00000  -0.00181  -0.00181   2.08664
   A28        2.09163  -0.00061   0.00000  -0.00302  -0.00303   2.08860
   A29        2.07977  -0.00319   0.00000  -0.01332  -0.01331   2.06645
   A30        2.10134   0.00151   0.00000   0.00611   0.00611   2.10746
   A31        2.10207   0.00169   0.00000   0.00720   0.00720   2.10927
   A32        2.10699   0.00194   0.00000   0.00875   0.00875   2.11574
   A33        2.08834  -0.00078   0.00000  -0.00323  -0.00323   2.08511
   A34        2.08786  -0.00116   0.00000  -0.00552  -0.00552   2.08234
   A35        2.11145   0.00107   0.00000   0.00389   0.00388   2.11533
   A36        2.05269  -0.00152   0.00000  -0.00787  -0.00787   2.04483
   A37        2.11905   0.00045   0.00000   0.00398   0.00398   2.12303
    D1        0.25600  -0.00097   0.00000  -0.03125  -0.03107   0.22493
    D2        2.90047  -0.00044   0.00000  -0.02284  -0.02262   2.87784
    D3       -2.92154   0.00026   0.00000   0.01555   0.01533  -2.90621
    D4       -0.27707   0.00080   0.00000   0.02396   0.02377  -0.25329
    D5       -0.00179   0.00036   0.00000   0.01561   0.01579   0.01401
    D6       -3.14129   0.00027   0.00000   0.01252   0.01270  -3.12859
    D7       -3.10432  -0.00083   0.00000  -0.03464  -0.03481  -3.13913
    D8        0.03936  -0.00092   0.00000  -0.03772  -0.03791   0.00145
    D9       -2.45110   0.00017   0.00000   0.00254   0.00271  -2.44839
   D10        1.70557  -0.00089   0.00000  -0.01052  -0.01071   1.69486
   D11       -0.37533   0.00009   0.00000   0.00139   0.00137  -0.37396
   D12        1.18782   0.00045   0.00000  -0.00057  -0.00038   1.18744
   D13       -0.93870  -0.00060   0.00000  -0.01364  -0.01380  -0.95251
   D14       -3.01960   0.00038   0.00000  -0.00173  -0.00172  -3.02132
   D15       -3.13773  -0.00007   0.00000  -0.00228  -0.00227  -3.13999
   D16        0.00173   0.00002   0.00000   0.00090   0.00090   0.00263
   D17        3.13632   0.00017   0.00000   0.00463   0.00463   3.14095
   D18       -0.00535   0.00017   0.00000   0.00458   0.00458  -0.00077
   D19        3.14105   0.00002   0.00000   0.00073   0.00073  -3.14140
   D20       -0.00056   0.00000   0.00000   0.00022   0.00022  -0.00034
   D21       -0.00047   0.00002   0.00000   0.00078   0.00078   0.00032
   D22        3.14110   0.00001   0.00000   0.00027   0.00027   3.14138
   D23        3.14151  -0.00001   0.00000  -0.00049  -0.00049   3.14102
   D24       -0.00016  -0.00001   0.00000  -0.00039  -0.00039  -0.00054
   D25       -0.00007  -0.00000   0.00000   0.00000   0.00000  -0.00006
   D26        3.14146   0.00000   0.00000   0.00010   0.00010   3.14155
   D27       -3.14155   0.00001   0.00000   0.00038   0.00038  -3.14117
   D28        0.00037   0.00000   0.00000   0.00018   0.00018   0.00055
   D29        0.00002  -0.00000   0.00000  -0.00011  -0.00011  -0.00009
   D30       -3.14125  -0.00001   0.00000  -0.00031  -0.00031  -3.14155
   D31        0.00007   0.00000   0.00000   0.00005   0.00005   0.00011
   D32        3.14149   0.00000   0.00000   0.00004   0.00004   3.14153
   D33       -3.14146  -0.00000   0.00000  -0.00005  -0.00005  -3.14151
   D34       -0.00003  -0.00000   0.00000  -0.00006  -0.00006  -0.00009
   D35       -0.00002   0.00000   0.00000   0.00002   0.00002  -0.00000
   D36        3.14151  -0.00000   0.00000  -0.00004  -0.00004   3.14147
   D37       -3.14144   0.00000   0.00000   0.00002   0.00002  -3.14142
   D38        0.00009  -0.00000   0.00000  -0.00003  -0.00003   0.00006
   D39       -0.00002  -0.00000   0.00000  -0.00013  -0.00013  -0.00015
   D40        3.14139   0.00000   0.00000   0.00008   0.00008   3.14147
   D41       -3.14156  -0.00000   0.00000  -0.00007  -0.00007   3.14156
   D42       -0.00014   0.00000   0.00000   0.00014   0.00014  -0.00001
   D43        0.00002   0.00001   0.00000   0.00018   0.00018   0.00020
   D44        3.14128   0.00001   0.00000   0.00038   0.00038  -3.14153
   D45       -3.14139  -0.00000   0.00000  -0.00003  -0.00003  -3.14142
   D46       -0.00014   0.00000   0.00000   0.00017   0.00017   0.00004
         Item               Value     Threshold  Converged?
 Maximum Force            0.023294     0.000450     NO 
 RMS     Force            0.005122     0.000300     NO 
 Maximum Displacement     0.143199     0.001800     NO 
 RMS     Displacement     0.049893     0.001200     NO 
 Predicted change in Energy=-3.361966D-03
 GradGradGradGradGradGradGradGradGradGradGradGradGradGradGradGradGradGrad

                          Input orientation:                          
 ---------------------------------------------------------------------
 Center     Atomic      Atomic             Coordinates (Angstroms)
 Number     Number       Type             X           Y           Z
 ---------------------------------------------------------------------
      1          8           0        2.907474    1.427983    0.022333
      2          6           0        2.917231    0.197696   -0.056130
      3          7           0        4.154097   -0.464447   -0.107651
      4          6           0        5.368363    0.239670    0.205485
      5          6           0        1.778259   -0.686856   -0.090082
      6          7           0        0.534973   -0.238248   -0.052871
      7          6           0       -0.524677   -1.007605   -0.079907
      8          6           0       -1.867037   -0.476259   -0.036546
      9          6           0       -3.000139   -1.326952   -0.066666
     10          6           0       -4.296677   -0.818878   -0.024372
     11          6           0       -4.523096    0.558689    0.049657
     12          6           0       -3.413306    1.416690    0.080314
     13          6           0       -2.116996    0.919056    0.038744
     14          1           0        4.135518   -1.460415    0.065970
     15          1           0        6.191706   -0.048331   -0.469042
     16          1           0        5.706441    0.089848    1.248401
     17          1           0        5.148443    1.305939    0.068986
     18          1           0        1.969025   -1.776933   -0.150417
     19          1           0       -0.419219   -2.109579   -0.138073
     20          1           0       -2.838485   -2.407422   -0.124614
     21          1           0       -5.146998   -1.506857   -0.049607
     22          1           0       -5.540165    0.956684    0.082693
     23          1           0       -3.570307    2.497701    0.138035
     24          1           0       -1.248778    1.580239    0.062269
 ---------------------------------------------------------------------
                    Distance matrix (angstroms):
                    1          2          3          4          5
     1  O    0.000000
     2  C    1.232824   0.000000
     3  N    2.269858   1.403897   0.000000
     4  C    2.738906   2.465410   1.438150   0.000000
     5  C    2.400064   1.442513   2.386291   3.719496   0.000000
     6  N    2.900128   2.421820   3.626600   4.863827   1.322268
     7  C    4.209774   3.646923   4.710279   6.030345   2.325188
     8  C    5.140580   4.831545   6.021566   7.274761   3.651767
     9  C    6.519008   6.110641   7.206156   8.518226   4.821136
    10  C    7.546546   7.285253   8.458614   9.725551   6.076726
    11  C    7.481295   7.449831   8.738721   9.897828   6.424794
    12  C    6.321056   6.448276   7.799975   8.861081   5.604131
    13  C    5.050205   5.086532   6.423560   7.517976   4.215277
    14  H    3.138923   2.061180   1.011159   2.104675   2.485843
    15  H    3.634162   3.309563   2.110830   1.102645   4.475471
    16  H    3.335876   3.081092   2.134454   1.106534   4.222016
    17  H    2.244775   2.494426   2.038183   1.097236   3.918504
    18  H    3.343952   2.192521   2.549312   3.968482   1.108287
    19  H    4.858699   4.057356   4.860310   6.255646   2.618273
    20  H    6.909990   6.318196   7.257524   8.629508   4.927055
    21  H    8.572804   8.242411   9.359507  10.662469   6.973753
    22  H    8.460990   8.492519   9.799723  10.932756   7.502693
    23  H    6.566530   6.885918   8.276539   9.219710   6.229012
    24  H    4.159231   4.391022   5.779332   6.753087   3.784955
                    6          7          8          9         10
     6  N    0.000000
     7  C    1.309770   0.000000
     8  C    2.413829   1.444347   0.000000
     9  C    3.698984   2.496010   1.417217   0.000000
    10  C    4.866496   3.777126   2.453708   1.393176   0.000000
    11  C    5.121492   4.296209   2.851876   2.426638   1.398012
    12  C    4.283161   3.774526   2.447010   2.778467   2.406048
    13  C    2.894941   2.502314   1.419525   2.415699   2.788442
    14  H    3.804174   4.684415   6.083564   7.138137   8.457048
    15  H    5.675200   6.795692   8.081678   9.289068  10.526046
    16  H    5.342756   6.464955   7.702542   8.918591  10.124629
    17  H    4.866567   6.128536   7.239084   8.564456   9.681625
    18  H    2.105604   2.610630   4.052171   4.990198   6.339777
    19  H    2.102290   1.108537   2.184999   2.697916   4.088217
    20  H    4.011319   2.704662   2.163529   1.094031   2.158667
    21  H    5.821870   4.649303   3.438087   2.154452   1.094074
    22  H    6.193024   5.388876   3.944542   3.418923   2.170333
    23  H    4.937123   4.648712   3.431624   3.872333   3.399071
    24  H    2.549886   2.690998   2.149696   3.396417   3.879814
                   11         12         13         14         15
    11  C    0.000000
    12  C    1.403117   0.000000
    13  C    2.432961   1.389168   0.000000
    14  H    8.890931   8.078532   6.690034   0.000000
    15  H   10.744510   9.731615   8.380227   2.551103   0.000000
    16  H   10.310201   9.289496   7.959713   2.503848   1.790024
    17  H    9.700383   8.562473   7.275796   2.945970   1.792182
    18  H    6.902376   6.262743   4.898949   2.200160   4.573907
    19  H    4.898643   4.631072   3.476542   4.605288   6.932720
    20  H    3.415567   3.872498   3.407739   7.040588   9.339609
    21  H    2.159998   3.401425   3.882496   9.283352  11.439818
    22  H    1.092667   2.176037   3.423658   9.973038  11.787759
    23  H    2.162263   1.093876   2.148043   8.663233  10.106815
    24  H    3.429997   2.170773   1.091567   6.183545   7.635138
                   16         17         18         19         20
    16  H    0.000000
    17  H    1.783609   0.000000
    18  H    4.405661   4.434066   0.000000
    19  H    6.654585   6.535098   2.411330   0.000000
    20  H    9.007625   8.810083   4.848746   2.437569   0.000000
    21  H   11.046784  10.673425   7.121859   4.766864   2.479087
    22  H   11.340037  10.694321   7.994681   5.972838   4.319636
    23  H    9.648250   8.800095   7.002849   5.588615   4.966364
    24  H    7.211328   6.403103   4.655115   3.787224   4.296921
                   21         22         23         24
    21  H    0.000000
    22  H    2.498224   0.000000
    23  H    4.307859   2.501626   0.000000
    24  H    4.973811   4.336501   2.497393   0.000000
 Stoichiometry    C10H11N2O(1-)
 Framework group  C1[X(C10H11N2O)]
 Deg. of freedom    66
 Full point group                 C1      NOp   1
 Largest Abelian subgroup         C1      NOp   1
 Largest concise Abelian subgroup C1      NOp   1
                         Standard orientation:                         
 ---------------------------------------------------------------------
 Center     Atomic      Atomic             Coordinates (Angstroms)
 Number     Number       Type             X           Y           Z
 ---------------------------------------------------------------------
      1          8           0        2.907467    1.398530   -0.070769
      2          6           0        2.894632    0.165800   -0.079141
      3          7           0        4.119077   -0.520722   -0.097779
      4          6           0        5.347393    0.177711    0.169999
      5          6           0        1.739729   -0.698262   -0.058219
      6          7           0        0.504941   -0.225590   -0.041694
      7          6           0       -0.568541   -0.975720   -0.020735
      8          6           0       -1.900862   -0.418296   -0.002387
      9          6           0       -3.049265   -1.248449    0.020412
     10          6           0       -4.336198   -0.715153    0.038838
     11          6           0       -4.537351    0.668307    0.035258
     12          6           0       -3.412121    1.506212    0.012673
     13          6           0       -2.125224    0.983383   -0.005624
     14          1           0        4.083393   -1.504710    0.132302
     15          1           0        6.162039   -0.163166   -0.490288
     16          1           0        5.687898    0.081225    1.218410
     17          1           0        5.146074    1.238347   -0.026080
     18          1           0        1.910491   -1.793315   -0.057185
     19          1           0       -0.483275   -2.080965   -0.016521
     20          1           0       -2.907425   -2.333243    0.023398
     21          1           0       -5.198910   -1.387780    0.056140
     22          1           0       -5.546896    1.086080    0.049604
     23          1           0       -3.549300    2.591448    0.009412
     24          1           0       -1.245110    1.628836   -0.023180
 ---------------------------------------------------------------------
 Rotational constants (GHZ):           3.2215525           0.2683160           0.2482958
 Standard basis: def2SVP (5D, 7F)
 There are   250 symmetry adapted cartesian basis functions of A   symmetry.
 There are   237 symmetry adapted basis functions of A   symmetry.
   237 basis functions,   402 primitive gaussians,   250 cartesian basis functions
    47 alpha electrons       47 beta electrons
       nuclear repulsion energy       686.2488600055 Hartrees.
 NAtoms=   24 NActive=   24 NUniq=   24 SFac= 1.00D+00 NAtFMM=   60 NAOKFM=F Big=F
 Integral buffers will be    131072 words long.
 Raffenetti 2 integral format.
 Two-electron integral symmetry is turned on.
 Nuclear repulsion after empirical dispersion term =      686.2480688026 Hartrees.
 One-electron integrals computed using PRISM.
   1 Symmetry operations used in ECPInt.
 ECPInt:  NShTT=    6216 NPrTT=   22568 LenC2=    5545 LenP2D=   14664.
 LDataN:  DoStor=T MaxTD1= 4 Len=   56
 NBasis=   237 RedAO= T EigKep=  3.08D-04  NBF=   237
 NBsUse=   237 1.00D-06 EigRej= -1.00D+00 NBFU=   237
 Initial guess from the checkpoint file:  "vsa3_crest_conformers-3.chk"
 B after Tr=     0.000000    0.000000   -0.000000
         Rot=    0.999998    0.001845    0.000098    0.000421 Ang=   0.22 deg.
 ExpMin= 1.22D-01 ExpMax= 2.27D+03 ExpMxC= 3.41D+02 IAcc=3 IRadAn=         5 AccDes= 0.00D+00
 Harris functional with IExCor= 1009 and IRadAn=       5 diagonalized for initial guess.
 HarFok:  IExCor= 1009 AccDes= 0.00D+00 IRadAn=         5 IDoV= 1 UseB2=F ITyADJ=14
 ICtDFT=  3500011 ScaDFX=  1.000000  1.000000  1.000000  1.000000
 FoFCou: FMM=F IPFlag=           0 FMFlag=      100000 FMFlg1=           0
         NFxFlg=           0 DoJE=T BraDBF=F KetDBF=T FulRan=T
         wScrn=  0.000000 ICntrl=       500 IOpCl=  0 I1Cent=   200000004 NGrid=           0
         NMat0=    1 NMatS0=      1 NMatT0=    0 NMatD0=    1 NMtDS0=    0 NMtDT0=    0
 Petite list used in FoFCou.
 Requested convergence on RMS density matrix=1.00D-08 within 128 cycles.
 Requested convergence on MAX density matrix=1.00D-06.
 Requested convergence on             energy=1.00D-06.
 No special actions if energy rises.
 Integral accuracy reduced to 1.0D-05 until final iterations.
 Initial convergence to 1.0D-05 achieved.  Increase integral accuracy.
 SCF Done:  E(RM062X) =  -571.768719035     A.U. after   13 cycles
            NFock= 13  Conv=0.66D-08     -V/T= 2.0102
   1 Symmetry operations used in ECPInt.
 ECPInt:  NShTT=    6216 NPrTT=   22568 LenC2=    5545 LenP2D=   14664.
 LDataN:  DoStor=T MaxTD1= 5 Len=  102
 Calling FoFJK, ICntrl=      2127 FMM=F ISym2X=0 I1Cent= 0 IOpClX= 0 NMat=1 NMatS=1 NMatT=0.
 ***** Axes restored to original set *****
 -------------------------------------------------------------------
 Center     Atomic                   Forces (Hartrees/Bohr)
 Number     Number              X              Y              Z
 -------------------------------------------------------------------
      1        8          -0.002067302   -0.007572526   -0.002249869
      2        6          -0.000214054    0.013761883    0.005041190
      3        7           0.004701875   -0.003183666   -0.000051077
      4        6          -0.004106308   -0.001252359   -0.001801037
      5        6          -0.004490171   -0.003560445   -0.000939213
      6        7           0.001680251    0.001430887   -0.000289603
      7        6           0.000884424   -0.000877670    0.000085172
      8        6           0.000018481    0.000104659    0.000124369
      9        6           0.000213494    0.001367812    0.000056051
     10        6           0.001363988    0.000671458    0.000002440
     11        6           0.000422539   -0.000397111   -0.000025289
     12        6           0.001094229   -0.001468860   -0.000085359
     13        6          -0.001516824    0.000006424   -0.000002931
     14        1          -0.000769704    0.000186611   -0.000425045
     15        1           0.000616563   -0.000025068    0.000205613
     16        1           0.000607960    0.000216904    0.000443588
     17        1           0.000582385    0.000139435    0.000295802
     18        1           0.000607318    0.000573934   -0.000361139
     19        1          -0.000637283    0.000345322    0.000002306
     20        1          -0.000292553    0.000092462    0.000009750
     21        1           0.000390546   -0.000120237   -0.000011716
     22        1           0.000635591   -0.000171993   -0.000019028
     23        1           0.000288278   -0.000103618   -0.000007713
     24        1          -0.000013724   -0.000164238    0.000002739
 -------------------------------------------------------------------
 Cartesian Forces:  Max     0.013761883 RMS     0.002328569

 GradGradGradGradGradGradGradGradGradGradGradGradGradGradGradGradGradGrad
 Berny optimization.
 Using GEDIIS/GDIIS optimizer.
 FormGI is forming the generalized inverse of G from B-inverse, IUseBI=4.
 Internal  Forces:  Max     0.007683252 RMS     0.001330101
 Search for a local minimum.
 Step number   2 out of a maximum of  117
 All quantities printed in internal units (Hartrees-Bohrs-Radians)
 Mixed Optimization -- RFO/linear search
 Update second derivatives using D2CorX and points    1    2
 DE= -3.09D-03 DEPred=-3.36D-03 R= 9.19D-01
 TightC=F SS=  1.41D+00  RLast= 1.50D-01 DXNew= 5.0454D-01 4.4981D-01
 Trust test= 9.19D-01 RLast= 1.50D-01 DXMaxT set to 4.50D-01
 ITU=  1  0
 Use linear search instead of GDIIS.
     Eigenvalues ---    0.01153   0.01755   0.01785   0.01804   0.01890
     Eigenvalues ---    0.01931   0.01943   0.02050   0.02176   0.02200
     Eigenvalues ---    0.02206   0.02209   0.02236   0.02276   0.02287
     Eigenvalues ---    0.02323   0.02332   0.02786   0.02996   0.07188
     Eigenvalues ---    0.07910   0.14702   0.15664   0.16000   0.16000
     Eigenvalues ---    0.16000   0.16000   0.16000   0.16000   0.16000
     Eigenvalues ---    0.16000   0.16122   0.21400   0.22000   0.22000
     Eigenvalues ---    0.22064   0.22399   0.23472   0.24467   0.24999
     Eigenvalues ---    0.25000   0.25738   0.32592   0.32630   0.33860
     Eigenvalues ---    0.34477   0.34831   0.35525   0.35623   0.35647
     Eigenvalues ---    0.35925   0.35980   0.39142   0.41687   0.42226
     Eigenvalues ---    0.42586   0.43032   0.45789   0.46099   0.46335
     Eigenvalues ---    0.47599   0.48241   0.52513   0.63857   0.67873
     Eigenvalues ---    0.82802
 RFO step:  Lambda=-6.61629107D-04 EMin= 1.15312345D-02
 Quartic linear search produced a step of -0.04642.
 Iteration  1 RMS(Cart)=  0.02559465 RMS(Int)=  0.00032909
 Iteration  2 RMS(Cart)=  0.00072695 RMS(Int)=  0.00014510
 Iteration  3 RMS(Cart)=  0.00000013 RMS(Int)=  0.00014510
 Variable       Old X    -DE/DX   Delta X   Delta X   Delta X     New X
                                 (Linear)    (Quad)   (Total)
    R1        2.32970  -0.00768   0.00100  -0.01187  -0.01087   2.31883
    R2        2.65298   0.00333  -0.00076   0.00934   0.00858   2.66156
    R3        2.72595   0.00092  -0.00246   0.01011   0.00765   2.73361
    R4        2.71771  -0.00258   0.00022  -0.00695  -0.00673   2.71098
    R5        1.91081  -0.00024  -0.00029   0.00045   0.00016   1.91097
    R6        2.08370   0.00034  -0.00091   0.00394   0.00303   2.08672
    R7        2.09105   0.00057  -0.00083   0.00434   0.00351   2.09455
    R8        2.07347  -0.00002  -0.00065   0.00210   0.00145   2.07492
    R9        2.49873  -0.00403  -0.00044  -0.00469  -0.00513   2.49360
   R10        2.09436  -0.00044   0.00012  -0.00168  -0.00156   2.09280
   R11        2.47511  -0.00188  -0.00073  -0.00029  -0.00102   2.47409
   R12        2.72942  -0.00249  -0.00188   0.00053  -0.00135   2.72807
   R13        2.09483  -0.00040   0.00011  -0.00153  -0.00143   2.09340
   R14        2.67815  -0.00206  -0.00099  -0.00116  -0.00215   2.67600
   R15        2.68251  -0.00133  -0.00106   0.00060  -0.00047   2.68205
   R16        2.63272  -0.00201  -0.00132   0.00046  -0.00086   2.63186
   R17        2.06742  -0.00013  -0.00089   0.00258   0.00168   2.06910
   R18        2.64186  -0.00110  -0.00095   0.00097   0.00002   2.64188
   R19        2.06750  -0.00023  -0.00096   0.00256   0.00160   2.06910
   R20        2.65151  -0.00099  -0.00112   0.00172   0.00060   2.65211
   R21        2.06484  -0.00066  -0.00101   0.00157   0.00056   2.06541
   R22        2.62515  -0.00247  -0.00118  -0.00084  -0.00202   2.62313
   R23        2.06713  -0.00014  -0.00097   0.00281   0.00184   2.06896
   R24        2.06276  -0.00011  -0.00100   0.00299   0.00199   2.06476
    A1        2.07143   0.00443   0.00042   0.01567   0.01525   2.08668
    A2        2.22331  -0.00047  -0.00067   0.00060  -0.00088   2.22243
    A3        1.98838  -0.00394   0.00023  -0.01555  -0.01615   1.97224
    A4        2.10013   0.00027   0.00087  -0.00103  -0.00017   2.09996
    A5        2.02870  -0.00084  -0.00000  -0.00397  -0.00399   2.02471
    A6        2.04921   0.00068  -0.00092   0.00862   0.00769   2.05690
    A7        1.94914   0.00039  -0.00137   0.00669   0.00532   1.95446
    A8        1.97893   0.00044  -0.00093   0.00514   0.00421   1.98314
    A9        1.85403   0.00082   0.00058   0.00354   0.00410   1.85814
   A10        1.88921  -0.00066   0.00081  -0.00757  -0.00675   1.88246
   A11        1.90432  -0.00040   0.00039  -0.00260  -0.00223   1.90210
   A12        1.88606  -0.00064   0.00059  -0.00562  -0.00505   1.88101
   A13        2.13377  -0.00231   0.00025  -0.01081  -0.01057   2.12320
   A14        2.05839   0.00042  -0.00043   0.00205   0.00161   2.06000
   A15        2.09102   0.00189   0.00018   0.00876   0.00893   2.09995
   A16        2.16620  -0.00130  -0.00125  -0.00085  -0.00210   2.16410
   A17        2.13554  -0.00244  -0.00007  -0.01031  -0.01038   2.12516
   A18        2.10370   0.00185   0.00002   0.00893   0.00896   2.11266
   A19        2.04395   0.00059   0.00005   0.00138   0.00142   2.04537
   A20        2.11953   0.00019  -0.00033   0.00185   0.00152   2.12105
   A21        2.12569  -0.00070  -0.00022  -0.00189  -0.00210   2.12358
   A22        2.03797   0.00051   0.00055   0.00004   0.00059   2.03855
   A23        2.12294  -0.00028  -0.00036  -0.00006  -0.00042   2.12252
   A24        2.06667   0.00042   0.00027   0.00143   0.00170   2.06837
   A25        2.09357  -0.00014   0.00009  -0.00137  -0.00128   2.09229
   A26        2.10794   0.00006  -0.00022   0.00114   0.00092   2.10886
   A27        2.08664  -0.00038   0.00008  -0.00257  -0.00248   2.08416
   A28        2.08860   0.00032   0.00014   0.00143   0.00157   2.09017
   A29        2.06645  -0.00009   0.00062  -0.00219  -0.00157   2.06489
   A30        2.10746   0.00012  -0.00028   0.00144   0.00116   2.10861
   A31        2.10927  -0.00003  -0.00033   0.00075   0.00041   2.10969
   A32        2.11574  -0.00007  -0.00041   0.00113   0.00073   2.11647
   A33        2.08511   0.00031   0.00015   0.00126   0.00141   2.08652
   A34        2.08234  -0.00024   0.00026  -0.00240  -0.00214   2.08020
   A35        2.11533  -0.00014  -0.00018  -0.00006  -0.00024   2.11509
   A36        2.04483  -0.00006   0.00037  -0.00161  -0.00125   2.04358
   A37        2.12303   0.00020  -0.00018   0.00168   0.00149   2.12452
    D1        0.22493   0.00055   0.00144   0.02916   0.03077   0.25570
    D2        2.87784   0.00095   0.00105   0.03937   0.04056   2.91840
    D3       -2.90621  -0.00093  -0.00071  -0.03925  -0.04010  -2.94630
    D4       -0.25329  -0.00052  -0.00110  -0.02904  -0.03031  -0.28360
    D5        0.01401  -0.00089  -0.00073  -0.04264  -0.04322  -0.02921
    D6       -3.12859  -0.00106  -0.00059  -0.05006  -0.05048   3.10411
    D7       -3.13913   0.00077   0.00162   0.03298   0.03443  -3.10470
    D8        0.00145   0.00060   0.00176   0.02557   0.02717   0.02862
    D9       -2.44839  -0.00021  -0.00013  -0.00221  -0.00234  -2.45073
   D10        1.69486   0.00003   0.00050  -0.00118  -0.00067   1.69419
   D11       -0.37396   0.00003  -0.00006   0.00051   0.00046  -0.37350
   D12        1.18744  -0.00021   0.00002  -0.00909  -0.00910   1.17834
   D13       -0.95251   0.00003   0.00064  -0.00807  -0.00743  -0.95993
   D14       -3.02132   0.00003   0.00008  -0.00637  -0.00630  -3.02762
   D15       -3.13999   0.00008   0.00011   0.00168   0.00178  -3.13822
   D16        0.00263   0.00025  -0.00004   0.00924   0.00921   0.01184
   D17        3.14095  -0.00009  -0.00021  -0.00209  -0.00230   3.13865
   D18       -0.00077  -0.00007  -0.00021  -0.00149  -0.00170  -0.00247
   D19       -3.14140  -0.00001  -0.00003  -0.00059  -0.00062   3.14116
   D20       -0.00034   0.00001  -0.00001   0.00033   0.00032  -0.00002
   D21        0.00032  -0.00003  -0.00004  -0.00117  -0.00121  -0.00089
   D22        3.14138  -0.00001  -0.00001  -0.00026  -0.00027   3.14111
   D23        3.14102   0.00002   0.00002   0.00091   0.00094  -3.14122
   D24       -0.00054   0.00002   0.00002   0.00069   0.00071   0.00016
   D25       -0.00006   0.00000  -0.00000   0.00004   0.00004  -0.00002
   D26        3.14155  -0.00000  -0.00000  -0.00018  -0.00018   3.14137
   D27       -3.14117  -0.00002  -0.00002  -0.00077  -0.00079   3.14122
   D28        0.00055  -0.00002  -0.00001  -0.00089  -0.00090  -0.00035
   D29       -0.00009   0.00000   0.00001   0.00010   0.00011   0.00002
   D30       -3.14155   0.00000   0.00001  -0.00002  -0.00001  -3.14156
   D31        0.00011  -0.00000  -0.00000  -0.00013  -0.00013  -0.00002
   D32        3.14153  -0.00000  -0.00000  -0.00010  -0.00010   3.14143
   D33       -3.14151   0.00000   0.00000   0.00010   0.00010  -3.14140
   D34       -0.00009   0.00000   0.00000   0.00013   0.00013   0.00004
   D35       -0.00000   0.00000  -0.00000   0.00006   0.00006   0.00005
   D36        3.14147  -0.00000   0.00000  -0.00001  -0.00001   3.14147
   D37       -3.14142   0.00000  -0.00000   0.00003   0.00003  -3.14139
   D38        0.00006  -0.00000   0.00000  -0.00004  -0.00003   0.00002
   D39       -0.00015   0.00000   0.00001   0.00009   0.00009  -0.00006
   D40        3.14147  -0.00000  -0.00000  -0.00004  -0.00004   3.14143
   D41        3.14156   0.00000   0.00000   0.00016   0.00016  -3.14147
   D42       -0.00001   0.00000  -0.00001   0.00003   0.00003   0.00002
   D43        0.00020  -0.00000  -0.00001  -0.00017  -0.00018   0.00002
   D44       -3.14153  -0.00000  -0.00002  -0.00004  -0.00006  -3.14159
   D45       -3.14142  -0.00000   0.00000  -0.00005  -0.00005  -3.14147
   D46        0.00004   0.00000  -0.00001   0.00008   0.00007   0.00011
         Item               Value     Threshold  Converged?
 Maximum Force            0.007683     0.000450     NO 
 RMS     Force            0.001330     0.000300     NO 
 Maximum Displacement     0.096465     0.001800     NO 
 RMS     Displacement     0.025913     0.001200     NO 
 Predicted change in Energy=-3.396447D-04
 GradGradGradGradGradGradGradGradGradGradGradGradGradGradGradGradGradGrad

                          Input orientation:                          
 ---------------------------------------------------------------------
 Center     Atomic      Atomic             Coordinates (Angstroms)
 Number     Number       Type             X           Y           Z
 ---------------------------------------------------------------------
      1          8           0        2.874381    1.432864    0.037480
      2          6           0        2.902228    0.206846   -0.005082
      3          7           0        4.141107   -0.457350   -0.092913
      4          6           0        5.361072    0.246415    0.179935
      5          6           0        1.772447   -0.695119   -0.056068
      6          7           0        0.530145   -0.251075   -0.028897
      7          6           0       -0.524948   -1.025202   -0.068887
      8          6           0       -1.864075   -0.487139   -0.032720
      9          6           0       -3.001820   -1.329083   -0.076773
     10          6           0       -4.294485   -0.811870   -0.042425
     11          6           0       -4.512678    0.566717    0.037340
     12          6           0       -3.396117    1.415798    0.081832
     13          6           0       -2.104145    0.909351    0.048105
     14          1           0        4.122773   -1.454183    0.076208
     15          1           0        6.168931   -0.041801   -0.515519
     16          1           0        5.735019    0.102969    1.213432
     17          1           0        5.140556    1.313977    0.048433
     18          1           0        1.976465   -1.781288   -0.127368
     19          1           0       -0.423446   -2.126529   -0.131797
     20          1           0       -2.848871   -2.411453   -0.139513
     21          1           0       -5.148546   -1.496060   -0.078641
     22          1           0       -5.527222    0.972370    0.064164
     23          1           0       -3.543561    2.498875    0.144258
     24          1           0       -1.229560    1.563379    0.082326
 ---------------------------------------------------------------------
                    Distance matrix (angstroms):
                    1          2          3          4          5
     1  O    0.000000
     2  C    1.227072   0.000000
     3  N    2.279145   1.408436   0.000000
     4  C    2.758911   2.466113   1.434590   0.000000
     5  C    2.398191   1.446563   2.380849   3.717582   0.000000
     6  N    2.887127   2.415996   3.617415   4.860964   1.319556
     7  C    4.196288   3.642464   4.700542   6.026952   2.321022
     8  C    5.113150   4.816640   6.005558   7.265403   3.642540
     9  C    6.493931   6.100983   7.195942   8.513874   4.816219
    10  C    7.512513   7.268553   8.443189   9.715925   6.068071
    11  C    7.437664   7.423755   8.715140   9.879973   6.411221
    12  C    6.270678   6.413912   7.768460   8.835465   5.584715
    13  C    5.005986   5.055700   6.394601   7.495754   4.196801
    14  H    3.145635   2.062852   1.011244   2.106224   2.473400
    15  H    3.651644   3.315678   2.112663   1.104246   4.468444
    16  H    3.366710   3.085494   2.135662   1.108391   4.236809
    17  H    2.269318   2.497742   2.038744   1.098002   3.923206
    18  H    3.341287   2.196513   2.537652   3.957472   1.107461
    19  H    4.855264   4.064578   4.860330   6.260087   2.622330
    20  H    6.896790   6.320498   7.258132   8.635362   4.930451
    21  H    8.541629   8.229232   9.347554  10.656226   6.967220
    22  H    8.414255   8.464422   9.774730  10.913082   7.488668
    23  H    6.506747   6.842798   8.237089   9.185169   6.204971
    24  H    4.106261   4.349654   5.740916   6.721634   3.759257
                    6          7          8          9         10
     6  N    0.000000
     7  C    1.309233   0.000000
     8  C    2.405832   1.443635   0.000000
     9  C    3.693124   2.495456   1.416077   0.000000
    10  C    4.857132   3.775662   2.452027   1.392722   0.000000
    11  C    5.109132   4.295053   2.851424   2.426885   1.398024
    12  C    4.266880   3.771579   2.445699   2.777588   2.405205
    13  C    2.879583   2.500009   1.419278   2.414954   2.787183
    14  H    3.790184   4.669731   6.065426   7.127333   8.442564
    15  H    5.663612   6.780455   8.059814   9.271044  10.502376
    16  H    5.362783   6.488782   7.723170   8.946941  10.149141
    17  H    4.869421   6.130535   7.232943   8.561526   9.671995
    18  H    2.107863   2.613838   4.053829   4.999036   6.346007
    19  H    2.106477   1.107782   2.184681   2.699437   4.089164
    20  H    4.012133   2.706898   2.164305   1.094923   2.158216
    21  H    5.813775   4.647522   3.436245   2.153211   1.094918
    22  H    6.180386   5.388018   3.944388   3.419679   2.171293
    23  H    4.918057   4.645059   3.430491   3.872415   3.399966
    24  H    2.530055   2.687023   2.149527   3.395961   3.879580
                   11         12         13         14         15
    11  C    0.000000
    12  C    1.403434   0.000000
    13  C    2.432807   1.388099   0.000000
    14  H    8.868854   8.048015   6.660450   0.000000
    15  H   10.713203   9.693893   8.346624   2.555724   0.000000
    16  H   10.325384   9.294175   7.966224   2.513431   1.788438
    17  H    9.682120   8.537346   7.255991   2.949468   1.792688
    18  H    6.902842   6.255379   4.890982   2.180615   4.555573
    19  H    4.899387   4.629308   3.474720   4.600372   6.924793
    20  H    3.415996   3.872509   3.408454   7.040364   9.331526
    21  H    2.161672   3.402304   3.882067   9.272706  11.418888
    22  H    1.092965   2.176820   3.423695   9.950413  11.754342
    23  H    2.164222   1.094848   2.146567   8.625774  10.060956
    24  H    3.431359   2.171578   1.092621   6.144363   7.594188
                   16         17         18         19         20
    16  H    0.000000
    17  H    1.782456   0.000000
    18  H    4.413038   4.429791   0.000000
    19  H    6.686329   6.544286   2.424620   0.000000
    20  H    9.046322   8.817318   4.866325   2.442115   0.000000
    21  H   11.076025  10.666680   7.130884   4.767272   2.475915
    22  H   11.354063  10.673258   7.995288   5.974120   4.320337
    23  H    9.642383   8.765104   6.990297   5.586205   4.967338
    24  H    7.205384   6.375087   4.637819   3.783000   4.297752
                   21         22         23         24
    21  H    0.000000
    22  H    2.501387   0.000000
    23  H    4.311051   2.504305   0.000000
    24  H    4.974387   4.338147   2.496715   0.000000
 Stoichiometry    C10H11N2O(1-)
 Framework group  C1[X(C10H11N2O)]
 Deg. of freedom    66
 Full point group                 C1      NOp   1
 Largest Abelian subgroup         C1      NOp   1
 Largest concise Abelian subgroup C1      NOp   1
                         Standard orientation:                         
 ---------------------------------------------------------------------
 Center     Atomic      Atomic             Coordinates (Angstroms)
 Number     Number       Type             X           Y           Z
 ---------------------------------------------------------------------
      1          8           0        2.878495    1.402809   -0.068052
      2          6           0        2.882937    0.176066   -0.039983
      3          7           0        4.108451   -0.515760   -0.096416
      4          6           0        5.343291    0.178978    0.128427
      5          6           0        1.736035   -0.705469   -0.032419
      6          7           0        0.502537   -0.236815   -0.023825
      7          6           0       -0.567208   -0.991549   -0.013083
      8          6           0       -1.895678   -0.426671   -0.000381
      9          6           0       -3.049364   -1.247744    0.010689
     10          6           0       -4.331787   -0.704675    0.022514
     11          6           0       -4.523408    0.680154    0.023871
     12          6           0       -3.390765    1.508783    0.012948
     13          6           0       -2.108827    0.976509    0.001127
     14          1           0        4.072480   -1.500669    0.130023
     15          1           0        6.140828   -0.164257   -0.553838
     16          1           0        5.721484    0.088102    1.166329
     17          1           0        5.142049    1.241239   -0.063175
     18          1           0        1.919053   -1.797660   -0.042111
     19          1           0       -0.486913   -2.096417   -0.012940
     20          1           0       -2.917274   -2.334669    0.009614
     21          1           0       -5.198819   -1.373282    0.030690
     22          1           0       -5.529920    1.106093    0.033033
     23          1           0       -3.517339    2.596289    0.013637
     24          1           0       -1.221857    1.614501   -0.007419
 ---------------------------------------------------------------------
 Rotational constants (GHZ):           3.2120098           0.2698876           0.2494987
 Standard basis: def2SVP (5D, 7F)
 There are   250 symmetry adapted cartesian basis functions of A   symmetry.
 There are   237 symmetry adapted basis functions of A   symmetry.
   237 basis functions,   402 primitive gaussians,   250 cartesian basis functions
    47 alpha electrons       47 beta electrons
       nuclear repulsion energy       686.9588474118 Hartrees.
 NAtoms=   24 NActive=   24 NUniq=   24 SFac= 1.00D+00 NAtFMM=   60 NAOKFM=F Big=F
 Integral buffers will be    131072 words long.
 Raffenetti 2 integral format.
 Two-electron integral symmetry is turned on.
 Nuclear repulsion after empirical dispersion term =      686.9580540518 Hartrees.
 One-electron integrals computed using PRISM.
   1 Symmetry operations used in ECPInt.
 ECPInt:  NShTT=    6216 NPrTT=   22568 LenC2=    5548 LenP2D=   14670.
 LDataN:  DoStor=T MaxTD1= 4 Len=   56
 NBasis=   237 RedAO= T EigKep=  3.07D-04  NBF=   237
 NBsUse=   237 1.00D-06 EigRej= -1.00D+00 NBFU=   237
 Initial guess from the checkpoint file:  "vsa3_crest_conformers-3.chk"
 B after Tr=    -0.000000   -0.000000   -0.000000
         Rot=    1.000000    0.000145   -0.000077    0.000174 Ang=   0.03 deg.
 ExpMin= 1.22D-01 ExpMax= 2.27D+03 ExpMxC= 3.41D+02 IAcc=3 IRadAn=         5 AccDes= 0.00D+00
 Harris functional with IExCor= 1009 and IRadAn=       5 diagonalized for initial guess.
 HarFok:  IExCor= 1009 AccDes= 0.00D+00 IRadAn=         5 IDoV= 1 UseB2=F ITyADJ=14
 ICtDFT=  3500011 ScaDFX=  1.000000  1.000000  1.000000  1.000000
 FoFCou: FMM=F IPFlag=           0 FMFlag=      100000 FMFlg1=           0
         NFxFlg=           0 DoJE=T BraDBF=F KetDBF=T FulRan=T
         wScrn=  0.000000 ICntrl=       500 IOpCl=  0 I1Cent=   200000004 NGrid=           0
         NMat0=    1 NMatS0=      1 NMatT0=    0 NMatD0=    1 NMtDS0=    0 NMtDT0=    0
 Petite list used in FoFCou.
 Requested convergence on RMS density matrix=1.00D-08 within 128 cycles.
 Requested convergence on MAX density matrix=1.00D-06.
 Requested convergence on             energy=1.00D-06.
 No special actions if energy rises.
 Integral accuracy reduced to 1.0D-05 until final iterations.
 Initial convergence to 1.0D-05 achieved.  Increase integral accuracy.
 SCF Done:  E(RM062X) =  -571.768874224     A.U. after   13 cycles
            NFock= 13  Conv=0.53D-08     -V/T= 2.0102
   1 Symmetry operations used in ECPInt.
 ECPInt:  NShTT=    6216 NPrTT=   22568 LenC2=    5548 LenP2D=   14670.
 LDataN:  DoStor=T MaxTD1= 5 Len=  102
 Calling FoFJK, ICntrl=      2127 FMM=F ISym2X=0 I1Cent= 0 IOpClX= 0 NMat=1 NMatS=1 NMatT=0.
 ***** Axes restored to original set *****
 -------------------------------------------------------------------
 Center     Atomic                   Forces (Hartrees/Bohr)
 Number     Number              X              Y              Z
 -------------------------------------------------------------------
      1        8           0.000631901   -0.002125761    0.002652910
      2        6          -0.001677108    0.002244788   -0.006928586
      3        7           0.002009538   -0.000057994    0.002234643
      4        6          -0.000899918   -0.000469651   -0.000099576
      5        6          -0.001174881   -0.000295741    0.001455766
      6        7           0.001378426   -0.000101252    0.000798834
      7        6          -0.001528412    0.000284944   -0.000206609
      8        6           0.000268218   -0.000379166   -0.000145850
      9        6          -0.000165114    0.000376064    0.000033475
     10        6           0.000334982    0.000278450    0.000031346
     11        6           0.000372081   -0.000398382   -0.000024116
     12        6           0.000436229   -0.000370297   -0.000002228
     13        6          -0.000584519    0.000438886    0.000054388
     14        1          -0.000300385    0.000484947    0.000015093
     15        1          -0.000388242    0.000197092    0.000318512
     16        1           0.000182872    0.000181162   -0.000259527
     17        1           0.000301392   -0.000221610   -0.000042395
     18        1           0.000225837    0.000209901    0.000180848
     19        1          -0.000047150    0.000217176    0.000000776
     20        1          -0.000248563    0.000681601    0.000033803
     21        1           0.000634832    0.000393226    0.000020258
     22        1           0.000830463   -0.000301743   -0.000026119
     23        1           0.000136417   -0.000737404   -0.000041212
     24        1          -0.000728893   -0.000529234   -0.000054435
 -------------------------------------------------------------------
 Cartesian Forces:  Max     0.006928586 RMS     0.001133815

 GradGradGradGradGradGradGradGradGradGradGradGradGradGradGradGradGradGrad
 Berny optimization.
 Using GEDIIS/GDIIS optimizer.
 FormGI is forming the generalized inverse of G from B-inverse, IUseBI=4.
 Internal  Forces:  Max     0.002046616 RMS     0.000595102
 Search for a local minimum.
 Step number   3 out of a maximum of  117
 All quantities printed in internal units (Hartrees-Bohrs-Radians)
 Mixed Optimization -- En-DIIS/RFO-DIIS
 Update second derivatives using D2CorX and points    1    2    3
 DE= -1.55D-04 DEPred=-3.40D-04 R= 4.57D-01
 Trust test= 4.57D-01 RLast= 1.15D-01 DXMaxT set to 4.50D-01
 ITU=  0  1  0
 Use linear search instead of GDIIS.
     Eigenvalues ---    0.01150   0.01751   0.01778   0.01785   0.01864
     Eigenvalues ---    0.01943   0.02050   0.02176   0.02199   0.02209
     Eigenvalues ---    0.02209   0.02237   0.02276   0.02287   0.02322
     Eigenvalues ---    0.02332   0.02766   0.02994   0.04168   0.07141
     Eigenvalues ---    0.07888   0.13122   0.15246   0.16000   0.16000
     Eigenvalues ---    0.16000   0.16000   0.16000   0.16000   0.16000
     Eigenvalues ---    0.16027   0.16119   0.20078   0.22000   0.22024
     Eigenvalues ---    0.22064   0.22369   0.23492   0.24168   0.24999
     Eigenvalues ---    0.25000   0.26148   0.32478   0.32630   0.33678
     Eigenvalues ---    0.34464   0.34818   0.35538   0.35631   0.35648
     Eigenvalues ---    0.35922   0.36123   0.38040   0.41264   0.41834
     Eigenvalues ---    0.42583   0.43049   0.45597   0.46095   0.46343
     Eigenvalues ---    0.47699   0.48240   0.53625   0.63170   0.67851
     Eigenvalues ---    0.76841
 RFO step:  Lambda=-2.59904547D-04 EMin= 1.14988506D-02
 Quartic linear search produced a step of -0.35021.
 Iteration  1 RMS(Cart)=  0.02309502 RMS(Int)=  0.00026105
 Iteration  2 RMS(Cart)=  0.00052871 RMS(Int)=  0.00005260
 Iteration  3 RMS(Cart)=  0.00000007 RMS(Int)=  0.00005260
 Variable       Old X    -DE/DX   Delta X   Delta X   Delta X     New X
                                 (Linear)    (Quad)   (Total)
    R1        2.31883  -0.00205   0.00381  -0.01003  -0.00623   2.31260
    R2        2.66156   0.00061  -0.00300   0.00755   0.00454   2.66610
    R3        2.73361  -0.00004  -0.00268   0.00639   0.00371   2.73731
    R4        2.71098  -0.00085   0.00236  -0.00655  -0.00419   2.70679
    R5        1.91097  -0.00047  -0.00006  -0.00045  -0.00050   1.91047
    R6        2.08672  -0.00054  -0.00106   0.00155   0.00049   2.08721
    R7        2.09455  -0.00020  -0.00123   0.00250   0.00127   2.09583
    R8        2.07492  -0.00027  -0.00051   0.00077   0.00027   2.07519
    R9        2.49360  -0.00106   0.00180  -0.00486  -0.00307   2.49053
   R10        2.09280  -0.00018   0.00055  -0.00156  -0.00101   2.09178
   R11        2.47409   0.00027   0.00036  -0.00033   0.00002   2.47412
   R12        2.72807  -0.00140   0.00047  -0.00266  -0.00219   2.72589
   R13        2.09340  -0.00022   0.00050  -0.00154  -0.00104   2.09236
   R14        2.67600  -0.00102   0.00075  -0.00281  -0.00205   2.67394
   R15        2.68205  -0.00071   0.00016  -0.00107  -0.00090   2.68114
   R16        2.63186  -0.00139   0.00030  -0.00211  -0.00181   2.63005
   R17        2.06910  -0.00071  -0.00059   0.00024  -0.00035   2.06875
   R18        2.64188  -0.00124  -0.00001  -0.00142  -0.00143   2.64046
   R19        2.06910  -0.00074  -0.00056   0.00014  -0.00042   2.06867
   R20        2.65211  -0.00101  -0.00021  -0.00064  -0.00085   2.65125
   R21        2.06541  -0.00088  -0.00020  -0.00088  -0.00108   2.06433
   R22        2.62313  -0.00158   0.00071  -0.00324  -0.00253   2.62059
   R23        2.06896  -0.00075  -0.00064   0.00031  -0.00033   2.06863
   R24        2.06476  -0.00090  -0.00070   0.00018  -0.00052   2.06423
    A1        2.08668  -0.00075  -0.00534   0.01056   0.00494   2.09162
    A2        2.22243   0.00049   0.00031   0.00177   0.00179   2.22422
    A3        1.97224   0.00042   0.00565  -0.01027  -0.00490   1.96734
    A4        2.09996   0.00017   0.00006   0.00011   0.00018   2.10014
    A5        2.02471  -0.00038   0.00140  -0.00458  -0.00318   2.02153
    A6        2.05690   0.00023  -0.00269   0.00717   0.00448   2.06138
    A7        1.95446  -0.00014  -0.00186   0.00364   0.00178   1.95624
    A8        1.98314   0.00044  -0.00148   0.00539   0.00391   1.98705
    A9        1.85814   0.00026  -0.00144   0.00400   0.00256   1.86069
   A10        1.88246  -0.00018   0.00236  -0.00610  -0.00373   1.87872
   A11        1.90210  -0.00020   0.00078  -0.00306  -0.00228   1.89982
   A12        1.88101  -0.00020   0.00177  -0.00433  -0.00257   1.87844
   A13        2.12320  -0.00038   0.00370  -0.00920  -0.00550   2.11771
   A14        2.06000  -0.00008  -0.00056   0.00081   0.00024   2.06025
   A15        2.09995   0.00047  -0.00313   0.00839   0.00527   2.10522
   A16        2.16410   0.00020   0.00073  -0.00074  -0.00001   2.16409
   A17        2.12516   0.00009   0.00363  -0.00762  -0.00398   2.12117
   A18        2.11266  -0.00001  -0.00314   0.00679   0.00365   2.11631
   A19        2.04537  -0.00007  -0.00050   0.00083   0.00033   2.04570
   A20        2.12105  -0.00004  -0.00053   0.00109   0.00056   2.12161
   A21        2.12358   0.00004   0.00074  -0.00149  -0.00075   2.12283
   A22        2.03855   0.00000  -0.00021   0.00040   0.00019   2.03874
   A23        2.12252  -0.00004   0.00015  -0.00029  -0.00014   2.12238
   A24        2.06837   0.00018  -0.00059   0.00187   0.00128   2.06965
   A25        2.09229  -0.00014   0.00045  -0.00158  -0.00113   2.09116
   A26        2.10886  -0.00002  -0.00032   0.00063   0.00031   2.10917
   A27        2.08416  -0.00008   0.00087  -0.00222  -0.00135   2.08281
   A28        2.09017   0.00010  -0.00055   0.00158   0.00103   2.09120
   A29        2.06489   0.00016   0.00055  -0.00100  -0.00045   2.06443
   A30        2.10861  -0.00005  -0.00041   0.00090   0.00049   2.10910
   A31        2.10969  -0.00011  -0.00014   0.00011  -0.00004   2.10965
   A32        2.11647  -0.00004  -0.00026   0.00052   0.00027   2.11674
   A33        2.08652   0.00005  -0.00049   0.00125   0.00076   2.08728
   A34        2.08020  -0.00002   0.00075  -0.00177  -0.00102   2.07917
   A35        2.11509  -0.00006   0.00009  -0.00026  -0.00017   2.11491
   A36        2.04358   0.00004   0.00044  -0.00094  -0.00050   2.04308
   A37        2.12452   0.00002  -0.00052   0.00120   0.00068   2.12520
    D1        0.25570  -0.00146  -0.01078  -0.02489  -0.03575   0.21995
    D2        2.91840  -0.00136  -0.01420  -0.01702  -0.03131   2.88710
    D3       -2.94630   0.00113   0.01404   0.00896   0.02309  -2.92321
    D4       -0.28360   0.00123   0.01061   0.01683   0.02754  -0.25607
    D5       -0.02921   0.00114   0.01514   0.00739   0.02245  -0.00676
    D6        3.10411   0.00133   0.01768   0.00721   0.02480   3.12891
    D7       -3.10470  -0.00163  -0.01206  -0.02996  -0.04194   3.13655
    D8        0.02862  -0.00144  -0.00951  -0.03014  -0.03958  -0.01096
    D9       -2.45073   0.00000   0.00082  -0.00258  -0.00176  -2.45248
   D10        1.69419   0.00001   0.00023  -0.00138  -0.00114   1.69304
   D11       -0.37350  -0.00016  -0.00016  -0.00175  -0.00192  -0.37542
   D12        1.17834   0.00007   0.00319  -0.00742  -0.00423   1.17411
   D13       -0.95993   0.00008   0.00260  -0.00622  -0.00362  -0.96355
   D14       -3.02762  -0.00010   0.00221  -0.00660  -0.00439  -3.03201
   D15       -3.13822  -0.00022  -0.00062  -0.00306  -0.00368   3.14129
   D16        0.01184  -0.00041  -0.00322  -0.00284  -0.00607   0.00577
   D17        3.13865   0.00005   0.00081  -0.00056   0.00025   3.13890
   D18       -0.00247   0.00003   0.00059  -0.00075  -0.00015  -0.00262
   D19        3.14116   0.00001   0.00022   0.00008   0.00030   3.14146
   D20       -0.00002  -0.00001  -0.00011  -0.00003  -0.00014  -0.00016
   D21       -0.00089   0.00004   0.00042   0.00026   0.00068  -0.00021
   D22        3.14111   0.00001   0.00009   0.00016   0.00025   3.14136
   D23       -3.14122  -0.00003  -0.00033  -0.00011  -0.00044   3.14152
   D24        0.00016  -0.00002  -0.00025  -0.00013  -0.00038  -0.00021
   D25       -0.00002  -0.00000  -0.00002  -0.00001  -0.00003  -0.00005
   D26        3.14137   0.00000   0.00006  -0.00003   0.00003   3.14140
   D27        3.14122   0.00003   0.00028   0.00022   0.00049  -3.14147
   D28       -0.00035   0.00003   0.00032   0.00029   0.00061   0.00025
   D29        0.00002   0.00000  -0.00004   0.00012   0.00008   0.00010
   D30       -3.14156   0.00001   0.00000   0.00019   0.00019  -3.14137
   D31       -0.00002   0.00000   0.00004  -0.00003   0.00001  -0.00001
   D32        3.14143   0.00000   0.00004  -0.00004  -0.00001   3.14142
   D33       -3.14140  -0.00000  -0.00004  -0.00001  -0.00005  -3.14145
   D34        0.00004  -0.00000  -0.00005  -0.00002  -0.00007  -0.00003
   D35        0.00005  -0.00000  -0.00002  -0.00002  -0.00004   0.00001
   D36        3.14147  -0.00000   0.00000  -0.00012  -0.00012   3.14135
   D37       -3.14139  -0.00000  -0.00001  -0.00001  -0.00002  -3.14141
   D38        0.00002  -0.00000   0.00001  -0.00011  -0.00010  -0.00008
   D39       -0.00006   0.00000  -0.00003   0.00013   0.00010   0.00004
   D40        3.14143  -0.00000   0.00001  -0.00007  -0.00006   3.14137
   D41       -3.14147   0.00000  -0.00006   0.00023   0.00017  -3.14130
   D42        0.00002   0.00000  -0.00001   0.00003   0.00002   0.00004
   D43        0.00002  -0.00000   0.00006  -0.00018  -0.00012  -0.00010
   D44       -3.14159  -0.00001   0.00002  -0.00026  -0.00023   3.14136
   D45       -3.14147   0.00000   0.00002   0.00002   0.00004  -3.14143
   D46        0.00011  -0.00000  -0.00002  -0.00006  -0.00008   0.00003
         Item               Value     Threshold  Converged?
 Maximum Force            0.002047     0.000450     NO 
 RMS     Force            0.000595     0.000300     NO 
 Maximum Displacement     0.098537     0.001800     NO 
 RMS     Displacement     0.023287     0.001200     NO 
 Predicted change in Energy=-1.953490D-04
 GradGradGradGradGradGradGradGradGradGradGradGradGradGradGradGradGradGrad

                          Input orientation:                          
 ---------------------------------------------------------------------
 Center     Atomic      Atomic             Coordinates (Angstroms)
 Number     Number       Type             X           Y           Z
 ---------------------------------------------------------------------
      1          8           0        2.862787    1.432807    0.008642
      2          6           0        2.896345    0.210948   -0.051070
      3          7           0        4.138877   -0.456003   -0.092992
      4          6           0        5.349372    0.250559    0.202242
      5          6           0        1.770808   -0.700070   -0.088927
      6          7           0        0.529741   -0.258054   -0.052590
      7          6           0       -0.524691   -1.033490   -0.084176
      8          6           0       -1.860936   -0.492126   -0.038182
      9          6           0       -3.000900   -1.329685   -0.072446
     10          6           0       -4.290566   -0.808346   -0.028037
     11          6           0       -4.503669    0.570228    0.052491
     12          6           0       -3.384105    1.415046    0.087395
     13          6           0       -2.095382    0.904780    0.043563
     14          1           0        4.111386   -1.450228    0.088216
     15          1           0        6.178172   -0.049403   -0.463375
     16          1           0        5.696842    0.127293    1.248230
     17          1           0        5.136751    1.316519    0.045909
     18          1           0        1.981260   -1.784771   -0.155383
     19          1           0       -0.426408   -2.134537   -0.147384
     20          1           0       -2.853451   -2.412606   -0.135605
     21          1           0       -5.146151   -1.490617   -0.056958
     22          1           0       -5.515959    0.979372    0.087115
     23          1           0       -3.526307    2.498623    0.150190
     24          1           0       -1.218166    1.555170    0.070042
 ---------------------------------------------------------------------
                    Distance matrix (angstroms):
                    1          2          3          4          5
     1  O    0.000000
     2  C    1.223777   0.000000
     3  N    2.281741   1.410839   0.000000
     4  C    2.760126   2.466389   1.432373   0.000000
     5  C    2.398146   1.448524   2.380617   3.714108   0.000000
     6  N    2.881990   2.412630   3.614786   4.853088   1.317932
     7  C    4.191210   3.640496   4.699195   6.019587   2.319592
     8  C    5.101090   4.808972   6.000172   7.252443   3.638046
     9  C    6.482343   6.095204   7.193063   8.502921   4.813095
    10  C    7.496304   7.258870   8.437054   9.700655   6.062647
    11  C    7.416916   7.409455   8.704477   9.859362   6.403336
    12  C    6.247413   6.396333   7.754265   8.811517   5.574758
    13  C    4.986329   5.040606   6.382505   7.475129   4.188141
    14  H    3.142805   2.062821   1.010977   2.106724   2.464228
    15  H    3.662175   3.317855   2.112162   1.104505   4.470843
    16  H    3.357501   3.088358   2.136905   1.109063   4.229215
    17  H    2.277240   2.500221   2.038843   1.098142   3.926115
    18  H    3.340181   2.197990   2.534724   3.951537   1.106925
    19  H    4.854801   4.068325   4.864387   6.258639   2.624666
    20  H    6.890819   6.320629   7.261044   8.630927   4.931402
    21  H    8.526066   8.220530   9.342562  10.642128   6.962062
    22  H    8.391373   8.448457   9.762612  10.890355   7.479872
    23  H    6.478929   6.820881   8.218516   9.156100   6.192596
    24  H    4.083248   4.330220   5.724448   6.697166   3.747712
                    6          7          8          9         10
     6  N    0.000000
     7  C    1.309246   0.000000
     8  C    2.402152   1.442478   0.000000
     9  C    3.689744   2.493889   1.414990   0.000000
    10  C    4.851679   3.773017   2.450143   1.391763   0.000000
    11  C    5.102187   4.292185   2.849711   2.425612   1.397270
    12  C    4.258761   3.768423   2.443996   2.775958   2.403845
    13  C    2.872751   2.498054   1.418799   2.413763   2.785455
    14  H    3.777470   4.657961   6.050005   7.115121   8.427237
    15  H    5.667190   6.785321   8.062509   9.276169  10.505236
    16  H    5.342242   6.467626   7.691459   8.917269  10.112002
    17  H    4.869653   6.131181   7.228132   8.557906   9.664099
    18  H    2.109109   2.617114   4.055508   5.003589   6.348656
    19  H    2.108173   1.107230   2.183417   2.698408   4.087143
    20  H    4.011854   2.706978   2.163983   1.094736   2.156506
    21  H    5.808182   4.644093   3.433653   2.151335   1.094694
    22  H    6.172619   5.384580   3.942105   3.418000   2.170434
    23  H    4.908351   4.641168   3.428341   3.870603   3.398809
    24  H    2.521507   2.684372   2.148555   3.394236   3.877560
                   11         12         13         14         15
    11  C    0.000000
    12  C    1.402983   0.000000
    13  C    2.431429   1.386758   0.000000
    14  H    8.848880   8.024473   6.638676   0.000000
    15  H   10.712226   9.689432   8.343809   2.556984   0.000000
    16  H   10.279903   9.244968   7.923034   2.519498   1.786754
    17  H    9.669265   8.521526   7.243845   2.950940   1.791555
    18  H    6.902430   6.251793   4.887973   2.169953   4.551969
    19  H    4.896913   4.626297   3.472661   4.595146   6.933117
    20  H    3.414073   3.870690   3.407611   7.034573   9.341433
    21  H    2.161445   3.401253   3.880105   9.258763  11.422896
    22  H    1.092396   2.175916   3.421667   9.929185  11.752195
    23  H    2.164138   1.094671   2.144587   8.598349  10.052154
    24  H    3.430008   2.170536   1.092345   6.118567   7.587160
                   16         17         18         19         20
    16  H    0.000000
    17  H    1.781442   0.000000
    18  H    4.408136   4.428954   0.000000
    19  H    6.675163   6.549495   2.432955   0.000000
    20  H    9.026272   8.819447   4.875347   2.442949   0.000000
    21  H   11.040455  10.659675   7.134158   4.764324   2.472392
    22  H   11.304916  10.658123   7.994222   5.971176   4.317878
    23  H    9.586207   8.743958   6.983848   5.582481   4.965338
    24  H    7.158512   6.359442   4.630589   3.779959   4.296475
                   21         22         23         24
    21  H    0.000000
    22  H    2.501672   0.000000
    23  H    4.310550   2.504160   0.000000
    24  H    4.972124   4.336226   2.494803   0.000000
 Stoichiometry    C10H11N2O(1-)
 Framework group  C1[X(C10H11N2O)]
 Deg. of freedom    66
 Full point group                 C1      NOp   1
 Largest Abelian subgroup         C1      NOp   1
 Largest concise Abelian subgroup C1      NOp   1
                         Standard orientation:                         
 ---------------------------------------------------------------------
 Center     Atomic      Atomic             Coordinates (Angstroms)
 Number     Number       Type             X           Y           Z
 ---------------------------------------------------------------------
      1          8           0        2.867350    1.401667   -0.086088
      2          6           0        2.877094    0.177976   -0.075246
      3          7           0        4.106337   -0.514383   -0.083510
      4          6           0        5.331688    0.184297    0.165595
      5          6           0        1.734062   -0.711590   -0.055933
      6          7           0        0.501929   -0.244100   -0.040256
      7          6           0       -0.567371   -0.999359   -0.022797
      8          6           0       -1.892704   -0.430293   -0.002840
      9          6           0       -3.048728   -1.246048    0.015874
     10          6           0       -4.327884   -0.697969    0.035221
     11          6           0       -4.514016    0.686847    0.036820
     12          6           0       -3.378245    1.510282    0.018407
     13          6           0       -2.099817    0.973307   -0.000999
     14          1           0        4.060650   -1.495774    0.154940
     15          1           0        6.151161   -0.169663   -0.484873
     16          1           0        5.682049    0.114819    1.215567
     17          1           0        5.138816    1.243406   -0.051211
     18          1           0        1.923269   -1.802215   -0.060451
     19          1           0       -0.490610   -2.103926   -0.022683
     20          1           0       -2.922461   -2.333477    0.014795
     21          1           0       -5.196571   -1.363960    0.049166
     22          1           0       -5.518059    1.116968    0.051776
     23          1           0       -3.499255    2.598244    0.019063
     24          1           0       -1.210128    1.606914   -0.015628
 ---------------------------------------------------------------------
 Rotational constants (GHZ):           3.1997817           0.2708609           0.2503330
 Standard basis: def2SVP (5D, 7F)
 There are   250 symmetry adapted cartesian basis functions of A   symmetry.
 There are   237 symmetry adapted basis functions of A   symmetry.
   237 basis functions,   402 primitive gaussians,   250 cartesian basis functions
    47 alpha electrons       47 beta electrons
       nuclear repulsion energy       687.5169740656 Hartrees.
 NAtoms=   24 NActive=   24 NUniq=   24 SFac= 1.00D+00 NAtFMM=   60 NAOKFM=F Big=F
 Integral buffers will be    131072 words long.
 Raffenetti 2 integral format.
 Two-electron integral symmetry is turned on.
 Nuclear repulsion after empirical dispersion term =      687.5161799634 Hartrees.
 One-electron integrals computed using PRISM.
   1 Symmetry operations used in ECPInt.
 ECPInt:  NShTT=    6216 NPrTT=   22568 LenC2=    5550 LenP2D=   14677.
 LDataN:  DoStor=T MaxTD1= 4 Len=   56
 NBasis=   237 RedAO= T EigKep=  3.05D-04  NBF=   237
 NBsUse=   237 1.00D-06 EigRej= -1.00D+00 NBFU=   237
 Initial guess from the checkpoint file:  "vsa3_crest_conformers-3.chk"
 B after Tr=     0.000000   -0.000000   -0.000000
         Rot=    1.000000    0.000501    0.000047    0.000130 Ang=   0.06 deg.
 ExpMin= 1.22D-01 ExpMax= 2.27D+03 ExpMxC= 3.41D+02 IAcc=3 IRadAn=         5 AccDes= 0.00D+00
 Harris functional with IExCor= 1009 and IRadAn=       5 diagonalized for initial guess.
 HarFok:  IExCor= 1009 AccDes= 0.00D+00 IRadAn=         5 IDoV= 1 UseB2=F ITyADJ=14
 ICtDFT=  3500011 ScaDFX=  1.000000  1.000000  1.000000  1.000000
 FoFCou: FMM=F IPFlag=           0 FMFlag=      100000 FMFlg1=           0
         NFxFlg=           0 DoJE=T BraDBF=F KetDBF=T FulRan=T
         wScrn=  0.000000 ICntrl=       500 IOpCl=  0 I1Cent=   200000004 NGrid=           0
         NMat0=    1 NMatS0=      1 NMatT0=    0 NMatD0=    1 NMtDS0=    0 NMtDT0=    0
 Petite list used in FoFCou.
 Requested convergence on RMS density matrix=1.00D-08 within 128 cycles.
 Requested convergence on MAX density matrix=1.00D-06.
 Requested convergence on             energy=1.00D-06.
 No special actions if energy rises.
 Integral accuracy reduced to 1.0D-05 until final iterations.
 Initial convergence to 1.0D-05 achieved.  Increase integral accuracy.
 SCF Done:  E(RM062X) =  -571.768992849     A.U. after   12 cycles
            NFock= 12  Conv=0.68D-08     -V/T= 2.0101
   1 Symmetry operations used in ECPInt.
 ECPInt:  NShTT=    6216 NPrTT=   22568 LenC2=    5550 LenP2D=   14677.
 LDataN:  DoStor=T MaxTD1= 5 Len=  102
 Calling FoFJK, ICntrl=      2127 FMM=F ISym2X=0 I1Cent= 0 IOpClX= 0 NMat=1 NMatS=1 NMatT=0.
 ***** Axes restored to original set *****
 -------------------------------------------------------------------
 Center     Atomic                   Forces (Hartrees/Bohr)
 Number     Number              X              Y              Z
 -------------------------------------------------------------------
      1        8           0.000996930    0.001764654   -0.000798755
      2        6          -0.000976867   -0.004415461    0.002060466
      3        7          -0.000015699    0.001107029   -0.000346370
      4        6           0.000715593    0.000155941    0.000031388
      5        6           0.000759930    0.001431389   -0.000506512
      6        7           0.000590533   -0.000650782   -0.000237718
      7        6          -0.001796121    0.000670472    0.000150574
      8        6           0.000366812   -0.000454800   -0.000013429
      9        6          -0.000180373   -0.000290315   -0.000016226
     10        6          -0.000346828   -0.000025232   -0.000001987
     11        6           0.000107824   -0.000196648   -0.000007966
     12        6          -0.000061344    0.000353874    0.000004261
     13        6           0.000124383    0.000413781    0.000032143
     14        1          -0.000024700    0.000450398   -0.000062136
     15        1          -0.000458428    0.000162596    0.000197901
     16        1          -0.000317555    0.000063982   -0.000405632
     17        1           0.000130205   -0.000291990    0.000064307
     18        1           0.000012891   -0.000039015   -0.000150115
     19        1           0.000254440    0.000016781    0.000009756
     20        1          -0.000099377    0.000554207    0.000033515
     21        1           0.000402967    0.000391496    0.000016090
     22        1           0.000457660   -0.000180835   -0.000011411
     23        1          -0.000010515   -0.000604731   -0.000031584
     24        1          -0.000632360   -0.000386790   -0.000010560
 -------------------------------------------------------------------
 Cartesian Forces:  Max     0.004415461 RMS     0.000767596

 GradGradGradGradGradGradGradGradGradGradGradGradGradGradGradGradGradGrad
 Berny optimization.
 Using GEDIIS/GDIIS optimizer.
 FormGI is forming the generalized inverse of G from B-inverse, IUseBI=4.
 Internal  Forces:  Max     0.002031035 RMS     0.000436796
 Search for a local minimum.
 Step number   4 out of a maximum of  117
 All quantities printed in internal units (Hartrees-Bohrs-Radians)
 Mixed Optimization -- En-DIIS/RFO-DIIS
 Swapping is turned off.
 Update second derivatives using D2CorX and points    1    2    3    4
 DE= -1.19D-04 DEPred=-1.95D-04 R= 6.07D-01
 TightC=F SS=  1.41D+00  RLast= 9.20D-02 DXNew= 7.5649D-01 2.7598D-01
 Trust test= 6.07D-01 RLast= 9.20D-02 DXMaxT set to 4.50D-01
 ITU=  1  0  1  0
     Eigenvalues ---    0.01148   0.01717   0.01773   0.01785   0.01844
     Eigenvalues ---    0.01943   0.02050   0.02176   0.02202   0.02209
     Eigenvalues ---    0.02210   0.02237   0.02276   0.02287   0.02322
     Eigenvalues ---    0.02332   0.02767   0.02996   0.05665   0.07109
     Eigenvalues ---    0.07869   0.13121   0.15357   0.16000   0.16000
     Eigenvalues ---    0.16000   0.16000   0.16000   0.16000   0.16023
     Eigenvalues ---    0.16053   0.16093   0.21084   0.22000   0.22019
     Eigenvalues ---    0.22226   0.22374   0.23476   0.24398   0.25002
     Eigenvalues ---    0.25013   0.30132   0.32346   0.32632   0.33699
     Eigenvalues ---    0.34476   0.34814   0.35557   0.35639   0.35692
     Eigenvalues ---    0.35919   0.36428   0.36930   0.41189   0.41866
     Eigenvalues ---    0.42585   0.42900   0.45796   0.46096   0.46453
     Eigenvalues ---    0.47412   0.48243   0.51728   0.62633   0.68250
     Eigenvalues ---    0.77496
 En-DIIS/RFO-DIIS/Sim-DIIS IScMMF=       -3 using points:     4    3
 RFO step:  Lambda=-7.99262227D-05.
 DidBck=T Rises=F RFO-DIIS coefs:    0.76061    0.23939
 Iteration  1 RMS(Cart)=  0.00689244 RMS(Int)=  0.00002561
 Iteration  2 RMS(Cart)=  0.00004533 RMS(Int)=  0.00001775
 Iteration  3 RMS(Cart)=  0.00000000 RMS(Int)=  0.00001775
 Variable       Old X    -DE/DX   Delta X   Delta X   Delta X     New X
                                 (Linear)    (Quad)   (Total)
    R1        2.31260   0.00169   0.00149   0.00125   0.00274   2.31535
    R2        2.66610  -0.00073  -0.00109  -0.00108  -0.00217   2.66393
    R3        2.73731  -0.00058  -0.00089  -0.00161  -0.00250   2.73482
    R4        2.70679   0.00008   0.00100  -0.00004   0.00096   2.70775
    R5        1.91047  -0.00045   0.00012  -0.00081  -0.00069   1.90978
    R6        2.08721  -0.00051  -0.00012  -0.00141  -0.00153   2.08568
    R7        2.09583  -0.00049  -0.00030  -0.00123  -0.00153   2.09430
    R8        2.07519  -0.00032  -0.00006  -0.00086  -0.00093   2.07426
    R9        2.49053   0.00064   0.00073   0.00030   0.00104   2.49157
   R10        2.09178   0.00005   0.00024   0.00006   0.00031   2.09209
   R11        2.47412   0.00097  -0.00001   0.00073   0.00073   2.47484
   R12        2.72589  -0.00028   0.00052  -0.00141  -0.00089   2.72500
   R13        2.09236   0.00001   0.00025  -0.00004   0.00020   2.09257
   R14        2.67394  -0.00000   0.00049  -0.00057  -0.00008   2.67386
   R15        2.68114   0.00001   0.00022  -0.00049  -0.00027   2.68087
   R16        2.63005  -0.00030   0.00043  -0.00116  -0.00073   2.62932
   R17        2.06875  -0.00056   0.00008  -0.00152  -0.00144   2.06731
   R18        2.64046  -0.00060   0.00034  -0.00145  -0.00111   2.63935
   R19        2.06867  -0.00056   0.00010  -0.00155  -0.00144   2.06723
   R20        2.65125  -0.00042   0.00020  -0.00122  -0.00102   2.65024
   R21        2.06433  -0.00049   0.00026  -0.00148  -0.00123   2.06310
   R22        2.62059  -0.00031   0.00061  -0.00115  -0.00055   2.62005
   R23        2.06863  -0.00060   0.00008  -0.00162  -0.00154   2.06709
   R24        2.06423  -0.00074   0.00012  -0.00191  -0.00179   2.06245
    A1        2.09162  -0.00203  -0.00118  -0.00545  -0.00653   2.08509
    A2        2.22422   0.00040  -0.00043   0.00104   0.00072   2.22494
    A3        1.96734   0.00163   0.00117   0.00441   0.00569   1.97303
    A4        2.10014   0.00011  -0.00004   0.00072   0.00068   2.10081
    A5        2.02153  -0.00009   0.00076  -0.00047   0.00029   2.02182
    A6        2.06138   0.00000  -0.00107   0.00008  -0.00100   2.06039
    A7        1.95624  -0.00008  -0.00043  -0.00089  -0.00131   1.95492
    A8        1.98705  -0.00018  -0.00094  -0.00043  -0.00136   1.98569
    A9        1.86069   0.00013  -0.00061   0.00070   0.00009   1.86078
   A10        1.87872   0.00019   0.00089   0.00096   0.00186   1.88058
   A11        1.89982  -0.00004   0.00055  -0.00035   0.00019   1.90001
   A12        1.87844  -0.00001   0.00061   0.00001   0.00063   1.87907
   A13        2.11771   0.00061   0.00132   0.00159   0.00291   2.12061
   A14        2.06025  -0.00031  -0.00006  -0.00110  -0.00115   2.05909
   A15        2.10522  -0.00030  -0.00126  -0.00049  -0.00175   2.10346
   A16        2.16409   0.00068   0.00000   0.00143   0.00143   2.16552
   A17        2.12117   0.00112   0.00095   0.00321   0.00416   2.12534
   A18        2.11631  -0.00083  -0.00087  -0.00262  -0.00349   2.11282
   A19        2.04570  -0.00029  -0.00008  -0.00059  -0.00067   2.04503
   A20        2.12161  -0.00014  -0.00013  -0.00053  -0.00066   2.12095
   A21        2.12283   0.00036   0.00018   0.00078   0.00096   2.12380
   A22        2.03874  -0.00022  -0.00005  -0.00026  -0.00030   2.03844
   A23        2.12238   0.00008   0.00003   0.00016   0.00019   2.12257
   A24        2.06965  -0.00002  -0.00031   0.00017  -0.00014   2.06951
   A25        2.09116  -0.00007   0.00027  -0.00032  -0.00005   2.09111
   A26        2.10917  -0.00004  -0.00008  -0.00029  -0.00037   2.10880
   A27        2.08281   0.00008   0.00032   0.00030   0.00062   2.08343
   A28        2.09120  -0.00004  -0.00025  -0.00000  -0.00025   2.09096
   A29        2.06443   0.00017   0.00011   0.00061   0.00071   2.06515
   A30        2.10910  -0.00008  -0.00012  -0.00025  -0.00037   2.10873
   A31        2.10965  -0.00009   0.00001  -0.00035  -0.00034   2.10930
   A32        2.11674  -0.00000  -0.00006  -0.00023  -0.00029   2.11644
   A33        2.08728  -0.00009  -0.00018  -0.00023  -0.00041   2.08687
   A34        2.07917   0.00009   0.00025   0.00045   0.00070   2.07987
   A35        2.11491   0.00001   0.00004   0.00002   0.00006   2.11497
   A36        2.04308   0.00006   0.00012   0.00035   0.00047   2.04354
   A37        2.12520  -0.00007  -0.00016  -0.00036  -0.00053   2.12467
    D1        0.21995   0.00034   0.00856  -0.00299   0.00555   0.22551
    D2        2.88710   0.00038   0.00749  -0.00228   0.00520   2.89230
    D3       -2.92321  -0.00048  -0.00553  -0.00324  -0.00876  -2.93197
    D4       -0.25607  -0.00044  -0.00659  -0.00253  -0.00911  -0.26518
    D5       -0.00676  -0.00046  -0.00537  -0.00255  -0.00794  -0.01470
    D6        3.12891  -0.00050  -0.00594  -0.00201  -0.00796   3.12096
    D7        3.13655   0.00043   0.01004  -0.00227   0.00778  -3.13886
    D8       -0.01096   0.00039   0.00948  -0.00173   0.00776  -0.00320
    D9       -2.45248   0.00003   0.00042   0.00029   0.00071  -2.45177
   D10        1.69304  -0.00002   0.00027   0.00003   0.00030   1.69334
   D11       -0.37542   0.00002   0.00046  -0.00020   0.00026  -0.37516
   D12        1.17411   0.00001   0.00101  -0.00030   0.00071   1.17482
   D13       -0.96355  -0.00004   0.00087  -0.00056   0.00030  -0.96325
   D14       -3.03201  -0.00000   0.00105  -0.00079   0.00026  -3.03175
   D15        3.14129   0.00012   0.00088   0.00106   0.00194  -3.13996
   D16        0.00577   0.00016   0.00145   0.00050   0.00196   0.00772
   D17        3.13890  -0.00000  -0.00006   0.00018   0.00012   3.13902
   D18       -0.00262   0.00001   0.00004   0.00036   0.00040  -0.00222
   D19        3.14146   0.00000  -0.00007   0.00028   0.00021  -3.14152
   D20       -0.00016   0.00001   0.00003   0.00013   0.00017   0.00001
   D21       -0.00021  -0.00001  -0.00016   0.00010  -0.00006  -0.00027
   D22        3.14136  -0.00001  -0.00006  -0.00004  -0.00010   3.14126
   D23        3.14152   0.00000   0.00011  -0.00013  -0.00002   3.14150
   D24       -0.00021   0.00000   0.00009  -0.00008   0.00001  -0.00020
   D25       -0.00005   0.00000   0.00001   0.00001   0.00001  -0.00003
   D26        3.14140   0.00000  -0.00001   0.00006   0.00005   3.14145
   D27       -3.14147  -0.00001  -0.00012   0.00006  -0.00006  -3.14153
   D28        0.00025  -0.00000  -0.00014   0.00017   0.00003   0.00028
   D29        0.00010  -0.00000  -0.00002  -0.00007  -0.00009   0.00000
   D30       -3.14137  -0.00000  -0.00005   0.00004  -0.00001  -3.14138
   D31       -0.00001   0.00000  -0.00000   0.00002   0.00002   0.00002
   D32        3.14142   0.00000   0.00000   0.00002   0.00002   3.14144
   D33       -3.14145   0.00000   0.00001  -0.00003  -0.00001  -3.14147
   D34       -0.00003   0.00000   0.00002  -0.00003  -0.00001  -0.00004
   D35        0.00001   0.00000   0.00001   0.00001   0.00002   0.00003
   D36        3.14135   0.00000   0.00003   0.00000   0.00003   3.14138
   D37       -3.14141   0.00000   0.00001   0.00001   0.00002  -3.14139
   D38       -0.00008   0.00000   0.00002   0.00000   0.00003  -0.00005
   D39        0.00004  -0.00000  -0.00002  -0.00008  -0.00010  -0.00006
   D40        3.14137   0.00000   0.00001  -0.00000   0.00001   3.14138
   D41       -3.14130  -0.00000  -0.00004  -0.00007  -0.00011  -3.14141
   D42        0.00004   0.00000  -0.00000   0.00000   0.00000   0.00004
   D43       -0.00010   0.00000   0.00003   0.00011   0.00014   0.00005
   D44        3.14136   0.00000   0.00006  -0.00000   0.00005   3.14142
   D45       -3.14143   0.00000  -0.00001   0.00004   0.00003  -3.14140
   D46        0.00003  -0.00000   0.00002  -0.00008  -0.00006  -0.00003
         Item               Value     Threshold  Converged?
 Maximum Force            0.002031     0.000450     NO 
 RMS     Force            0.000437     0.000300     NO 
 Maximum Displacement     0.022367     0.001800     NO 
 RMS     Displacement     0.006870     0.001200     NO 
 Predicted change in Energy=-3.999244D-05
 GradGradGradGradGradGradGradGradGradGradGradGradGradGradGradGradGradGrad

                          Input orientation:                          
 ---------------------------------------------------------------------
 Center     Atomic      Atomic             Coordinates (Angstroms)
 Number     Number       Type             X           Y           Z
 ---------------------------------------------------------------------
      1          8           0        2.872441    1.429505    0.015192
      2          6           0        2.899913    0.205826   -0.039927
      3          7           0        4.142309   -0.458326   -0.090732
      4          6           0        5.354432    0.249570    0.197008
      5          6           0        1.771490   -0.699305   -0.082332
      6          7           0        0.530492   -0.255338   -0.047549
      7          6           0       -0.526428   -1.027940   -0.081240
      8          6           0       -1.863008   -0.488488   -0.037244
      9          6           0       -3.001247   -1.328218   -0.073879
     10          6           0       -4.291740   -0.809802   -0.031425
     11          6           0       -4.507325    0.567776    0.049386
     12          6           0       -3.390350    1.415026    0.086601
     13          6           0       -2.100709    0.907704    0.044825
     14          1           0        4.118140   -1.452362    0.089942
     15          1           0        6.177308   -0.048993   -0.475211
     16          1           0        5.707914    0.124629    1.239920
     17          1           0        5.139655    1.315008    0.043538
     18          1           0        1.978591   -1.784669   -0.151155
     19          1           0       -0.427358   -2.129008   -0.144762
     20          1           0       -2.851538   -2.410045   -0.137264
     21          1           0       -5.145641   -1.492880   -0.062085
     22          1           0       -5.519942    0.974496    0.082492
     23          1           0       -3.535683    2.497351    0.149652
     24          1           0       -1.226066    1.559894    0.073161
 ---------------------------------------------------------------------
                    Distance matrix (angstroms):
                    1          2          3          4          5
     1  O    0.000000
     2  C    1.225228   0.000000
     3  N    2.277650   1.409691   0.000000
     4  C    2.754193   2.466316   1.432882   0.000000
     5  C    2.398632   1.447203   2.383049   3.716970   0.000000
     6  N    2.885716   2.413894   3.617775   4.856453   1.318481
     7  C    4.195313   3.641936   4.703367   6.024448   2.321300
     8  C    5.109396   4.813262   6.005632   7.258860   3.640887
     9  C    6.489468   6.097388   7.196346   8.507654   4.814004
    10  C    7.506142   7.263019   8.441578   9.706857   6.064451
    11  C    7.429986   7.416613   8.711412   9.867993   6.406744
    12  C    6.263216   6.406683   7.764139   8.822794   5.580639
    13  C    5.000537   5.050349   6.392158   7.485681   4.194350
    14  H    3.140464   2.061682   1.010611   2.106288   2.470534
    15  H    3.653573   3.315980   2.111066   1.103695   4.470849
    16  H    3.352994   3.086985   2.135788   1.108253   4.233515
    17  H    2.270280   2.500739   2.038980   1.097652   3.926555
    18  H    3.340293   2.196195   2.538605   3.956722   1.107087
    19  H    4.855644   4.066100   4.865795   6.261272   2.623525
    20  H    6.894152   6.319133   7.261217   8.632683   4.929710
    21  H    8.534399   8.222958   9.345435  10.646821   6.962534
    22  H    8.404979   8.455755   9.769447  10.899112   7.482898
    23  H    6.497879   6.834027   8.230758   9.170000   6.199880
    24  H    4.100990   4.343960   5.737554   6.710830   3.756794
                    6          7          8          9         10
     6  N    0.000000
     7  C    1.309630   0.000000
     8  C    2.404851   1.442009   0.000000
     9  C    3.691199   2.492980   1.414948   0.000000
    10  C    4.854031   3.771954   2.449901   1.391376   0.000000
    11  C    5.105537   4.290794   2.848791   2.424511   1.396684
    12  C    4.263932   3.768064   2.443661   2.775346   2.403392
    13  C    2.878266   2.498193   1.418657   2.413381   2.785006
    14  H    3.784573   4.667061   6.059651   7.122354   8.435265
    15  H    5.666746   6.786283   8.064221   9.275957  10.506034
    16  H    5.348612   6.476180   7.702333   8.926720  10.123367
    17  H    4.870181   6.132657   7.231626   8.560066   9.668074
    18  H    2.108691   2.617756   4.055976   5.001310   6.346790
    19  H    2.106553   1.107339   2.182649   2.696515   4.084923
    20  H    4.011102   2.705455   2.163233   1.093974   2.155496
    21  H    5.809494   4.642593   3.432944   2.150739   1.093930
    22  H    6.175529   5.382540   3.940536   3.416251   2.169142
    23  H    4.914261   4.640755   3.427536   3.869182   3.397304
    24  H    2.528860   2.685185   2.147965   3.393241   3.876178
                   11         12         13         14         15
    11  C    0.000000
    12  C    1.402444   0.000000
    13  C    2.430509   1.386469   0.000000
    14  H    8.858965   8.037373   6.651769   0.000000
    15  H   10.715269   9.695312   8.349327   2.555194   0.000000
    16  H   10.293924   9.261409   7.938265   2.517286   1.786659
    17  H    9.675878   8.530701   7.251811   2.950251   1.790621
    18  H    6.902269   6.254607   4.891621   2.178584   4.554867
    19  H    4.894534   4.625260   3.472414   4.601575   6.932336
    20  H    3.412314   3.869316   3.406517   7.038835   9.338567
    21  H    2.160133   3.399864   3.878898   9.265118  11.422113
    22  H    1.091747   2.174683   3.420094   9.938930  11.755179
    23  H    2.162731   1.093858   2.144089   8.613060  10.060642
    24  H    3.428050   2.169169   1.091400   6.134697   7.595997
                   16         17         18         19         20
    16  H    0.000000
    17  H    1.780801   0.000000
    18  H    4.414562   4.431504   0.000000
    19  H    6.681152   6.548919   2.430473   0.000000
    20  H    9.032465   8.818609   4.870465   2.440427   0.000000
    21  H   11.050395  10.662210   7.130761   4.761690   2.471792
    22  H   11.319305  10.665106   7.993471   5.968065   4.315529
    23  H    9.605342   8.756180   6.988089   5.581358   4.963155
    24  H    7.176447   6.370498   4.637482   3.780664   4.294980
                   21         22         23         24
    21  H    0.000000
    22  H    2.499790   0.000000
    23  H    4.307986   2.502176   0.000000
    24  H    4.969989   4.333608   2.493794   0.000000
 Stoichiometry    C10H11N2O(1-)
 Framework group  C1[X(C10H11N2O)]
 Deg. of freedom    66
 Full point group                 C1      NOp   1
 Largest Abelian subgroup         C1      NOp   1
 Largest concise Abelian subgroup C1      NOp   1
                         Standard orientation:                         
 ---------------------------------------------------------------------
 Center     Atomic      Atomic             Coordinates (Angstroms)
 Number     Number       Type             X           Y           Z
 ---------------------------------------------------------------------
      1          8           0        2.876110    1.399335   -0.082445
      2          6           0        2.880137    0.174216   -0.066606
      3          7           0        4.109456   -0.515487   -0.084287
      4          6           0        5.336316    0.184489    0.156542
      5          6           0        1.734588   -0.710026   -0.051445
      6          7           0        0.502416   -0.241052   -0.036990
      7          6           0       -0.569092   -0.993879   -0.021134
      8          6           0       -1.894971   -0.427230   -0.002600
      9          6           0       -3.049068   -1.245670    0.014571
     10          6           0       -4.329274   -0.700992    0.032583
     11          6           0       -4.518327    0.682838    0.034295
     12          6           0       -3.385346    1.509226    0.017362
     13          6           0       -2.105776    0.975676   -0.000613
     14          1           0        4.067497   -1.496743    0.153852
     15          1           0        6.149675   -0.168244   -0.500855
     16          1           0        5.693130    0.113397    1.203374
     17          1           0        5.140876    1.243176   -0.057525
     18          1           0        1.920748   -1.801328   -0.058103
     19          1           0       -0.491208   -2.098476   -0.021112
     20          1           0       -2.920189   -2.332026    0.013390
     21          1           0       -5.196093   -1.368183    0.045375
     22          1           0       -5.522876    1.110154    0.048227
     23          1           0       -3.509840    2.595976    0.018161
     24          1           0       -1.218817    1.611504   -0.014025
 ---------------------------------------------------------------------
 Rotational constants (GHZ):           3.2087625           0.2703022           0.2498889
 Standard basis: def2SVP (5D, 7F)
 There are   250 symmetry adapted cartesian basis functions of A   symmetry.
 There are   237 symmetry adapted basis functions of A   symmetry.
   237 basis functions,   402 primitive gaussians,   250 cartesian basis functions
    47 alpha electrons       47 beta electrons
       nuclear repulsion energy       687.3724795412 Hartrees.
 NAtoms=   24 NActive=   24 NUniq=   24 SFac= 1.00D+00 NAtFMM=   60 NAOKFM=F Big=F
 Integral buffers will be    131072 words long.
 Raffenetti 2 integral format.
 Two-electron integral symmetry is turned on.
 Nuclear repulsion after empirical dispersion term =      687.3716863249 Hartrees.
 One-electron integrals computed using PRISM.
   1 Symmetry operations used in ECPInt.
 ECPInt:  NShTT=    6216 NPrTT=   22568 LenC2=    5549 LenP2D=   14677.
 LDataN:  DoStor=T MaxTD1= 4 Len=   56
 NBasis=   237 RedAO= T EigKep=  3.04D-04  NBF=   237
 NBsUse=   237 1.00D-06 EigRej= -1.00D+00 NBFU=   237
 Initial guess from the checkpoint file:  "vsa3_crest_conformers-3.chk"
 B after Tr=     0.000000   -0.000000    0.000000
         Rot=    1.000000   -0.000032   -0.000008   -0.000048 Ang=  -0.01 deg.
 ExpMin= 1.22D-01 ExpMax= 2.27D+03 ExpMxC= 3.41D+02 IAcc=3 IRadAn=         5 AccDes= 0.00D+00
 Harris functional with IExCor= 1009 and IRadAn=       5 diagonalized for initial guess.
 HarFok:  IExCor= 1009 AccDes= 0.00D+00 IRadAn=         5 IDoV= 1 UseB2=F ITyADJ=14
 ICtDFT=  3500011 ScaDFX=  1.000000  1.000000  1.000000  1.000000
 FoFCou: FMM=F IPFlag=           0 FMFlag=      100000 FMFlg1=           0
         NFxFlg=           0 DoJE=T BraDBF=F KetDBF=T FulRan=T
         wScrn=  0.000000 ICntrl=       500 IOpCl=  0 I1Cent=   200000004 NGrid=           0
         NMat0=    1 NMatS0=      1 NMatT0=    0 NMatD0=    1 NMtDS0=    0 NMtDT0=    0
 Petite list used in FoFCou.
 Requested convergence on RMS density matrix=1.00D-08 within 128 cycles.
 Requested convergence on MAX density matrix=1.00D-06.
 Requested convergence on             energy=1.00D-06.
 No special actions if energy rises.
 Integral accuracy reduced to 1.0D-05 until final iterations.
 Initial convergence to 1.0D-05 achieved.  Increase integral accuracy.
 SCF Done:  E(RM062X) =  -571.769033998     A.U. after   12 cycles
            NFock= 12  Conv=0.48D-08     -V/T= 2.0101
   1 Symmetry operations used in ECPInt.
 ECPInt:  NShTT=    6216 NPrTT=   22568 LenC2=    5549 LenP2D=   14677.
 LDataN:  DoStor=T MaxTD1= 5 Len=  102
 Calling FoFJK, ICntrl=      2127 FMM=F ISym2X=0 I1Cent= 0 IOpClX= 0 NMat=1 NMatS=1 NMatT=0.
 ***** Axes restored to original set *****
 -------------------------------------------------------------------
 Center     Atomic                   Forces (Hartrees/Bohr)
 Number     Number              X              Y              Z
 -------------------------------------------------------------------
      1        8          -0.000056494    0.000402744   -0.000002624
      2        6          -0.000152432   -0.000499693   -0.000027451
      3        7           0.000082267    0.000043964    0.000139973
      4        6          -0.000039950   -0.000085811   -0.000065505
      5        6          -0.000010419    0.000265466   -0.000025191
      6        7           0.000274426   -0.000103434    0.000043896
      7        6          -0.000382996    0.000152094    0.000010846
      8        6           0.000278006   -0.000150293   -0.000008840
      9        6           0.000026973   -0.000105084   -0.000006956
     10        6          -0.000117456   -0.000007188    0.000000258
     11        6          -0.000052869   -0.000034249   -0.000000976
     12        6           0.000014270    0.000119740    0.000009311
     13        6           0.000021164    0.000088225    0.000003290
     14        1           0.000035745   -0.000015051   -0.000015484
     15        1          -0.000050053    0.000007334    0.000018236
     16        1          -0.000032399    0.000043881   -0.000030431
     17        1           0.000034782   -0.000061052    0.000013514
     18        1           0.000063874   -0.000021548   -0.000047541
     19        1           0.000068901   -0.000037295   -0.000007321
     20        1          -0.000013935    0.000048804    0.000001018
     21        1           0.000043854    0.000033355    0.000000729
     22        1           0.000029453    0.000000560    0.000000038
     23        1          -0.000013445   -0.000060449   -0.000001480
     24        1          -0.000051266   -0.000025019   -0.000001311
 -------------------------------------------------------------------
 Cartesian Forces:  Max     0.000499693 RMS     0.000117992

 GradGradGradGradGradGradGradGradGradGradGradGradGradGradGradGradGradGrad
 Berny optimization.
 Using GEDIIS/GDIIS optimizer.
 FormGI is forming the generalized inverse of G from B-inverse, IUseBI=4.
 Internal  Forces:  Max     0.000402858 RMS     0.000065741
 Search for a local minimum.
 Step number   5 out of a maximum of  117
 All quantities printed in internal units (Hartrees-Bohrs-Radians)
 Mixed Optimization -- En-DIIS/RFO-DIIS
 Swapping is turned off.
 Update second derivatives using D2CorX and points    1    2    3    4    5
 DE= -4.11D-05 DEPred=-4.00D-05 R= 1.03D+00
 TightC=F SS=  1.41D+00  RLast= 2.55D-02 DXNew= 7.5649D-01 7.6468D-02
 Trust test= 1.03D+00 RLast= 2.55D-02 DXMaxT set to 4.50D-01
 ITU=  1  1  0  1  0
     Eigenvalues ---    0.01147   0.01686   0.01775   0.01785   0.01840
     Eigenvalues ---    0.01943   0.02050   0.02176   0.02201   0.02209
     Eigenvalues ---    0.02209   0.02237   0.02276   0.02287   0.02322
     Eigenvalues ---    0.02332   0.02767   0.02996   0.05727   0.07124
     Eigenvalues ---    0.07879   0.13682   0.15408   0.15861   0.16000
     Eigenvalues ---    0.16000   0.16000   0.16000   0.16000   0.16007
     Eigenvalues ---    0.16043   0.16092   0.21016   0.21937   0.22002
     Eigenvalues ---    0.22044   0.22373   0.23513   0.24560   0.24984
     Eigenvalues ---    0.25020   0.30669   0.32620   0.32660   0.33784
     Eigenvalues ---    0.34481   0.34816   0.35542   0.35626   0.35655
     Eigenvalues ---    0.35914   0.36087   0.37357   0.41438   0.41688
     Eigenvalues ---    0.42582   0.43407   0.45967   0.46102   0.46792
     Eigenvalues ---    0.47427   0.48231   0.52035   0.62568   0.69329
     Eigenvalues ---    0.77505
 En-DIIS/RFO-DIIS/Sim-DIIS IScMMF=       -3 using points:     5    4    3
 RFO step:  Lambda=-2.08461876D-06.
 DidBck=F Rises=F RFO-DIIS coefs:    1.27558   -0.20042   -0.07517
 Iteration  1 RMS(Cart)=  0.00245507 RMS(Int)=  0.00000668
 Iteration  2 RMS(Cart)=  0.00000518 RMS(Int)=  0.00000535
 Iteration  3 RMS(Cart)=  0.00000000 RMS(Int)=  0.00000535
 Variable       Old X    -DE/DX   Delta X   Delta X   Delta X     New X
                                 (Linear)    (Quad)   (Total)
    R1        2.31535   0.00040   0.00029   0.00030   0.00059   2.31593
    R2        2.66393   0.00006  -0.00026   0.00036   0.00011   2.66404
    R3        2.73482  -0.00024  -0.00041  -0.00028  -0.00069   2.73413
    R4        2.70775  -0.00014  -0.00005  -0.00034  -0.00039   2.70737
    R5        1.90978   0.00001  -0.00023   0.00024   0.00001   1.90979
    R6        2.08568  -0.00005  -0.00039   0.00018  -0.00020   2.08548
    R7        2.09430  -0.00004  -0.00033   0.00014  -0.00018   2.09411
    R8        2.07426  -0.00007  -0.00024  -0.00001  -0.00025   2.07401
    R9        2.49157  -0.00014   0.00006  -0.00030  -0.00024   2.49133
   R10        2.09209   0.00004   0.00001   0.00012   0.00013   2.09222
   R11        2.47484   0.00010   0.00020  -0.00000   0.00020   2.47504
   R12        2.72500  -0.00019  -0.00041  -0.00012  -0.00053   2.72447
   R13        2.09257   0.00004  -0.00002   0.00018   0.00015   2.09272
   R14        2.67386   0.00007  -0.00018   0.00035   0.00017   2.67403
   R15        2.68087   0.00010  -0.00014   0.00041   0.00027   2.68114
   R16        2.62932   0.00008  -0.00034   0.00049   0.00015   2.62947
   R17        2.06731  -0.00005  -0.00042   0.00022  -0.00020   2.06711
   R18        2.63935  -0.00000  -0.00041   0.00036  -0.00005   2.63930
   R19        2.06723  -0.00006  -0.00043   0.00021  -0.00022   2.06701
   R20        2.65024   0.00004  -0.00034   0.00040   0.00006   2.65029
   R21        2.06310  -0.00003  -0.00042   0.00030  -0.00012   2.06298
   R22        2.62005   0.00003  -0.00034   0.00040   0.00006   2.62010
   R23        2.06709  -0.00006  -0.00045   0.00022  -0.00022   2.06687
   R24        2.06245  -0.00006  -0.00053   0.00031  -0.00022   2.06222
    A1        2.08509   0.00011  -0.00143   0.00180   0.00034   2.08543
    A2        2.22494  -0.00000   0.00033  -0.00029   0.00001   2.22495
    A3        1.97303  -0.00011   0.00120  -0.00152  -0.00036   1.97267
    A4        2.10081   0.00009   0.00020   0.00042   0.00062   2.10144
    A5        2.02182  -0.00002  -0.00016   0.00036   0.00020   2.02202
    A6        2.06039  -0.00005   0.00006  -0.00015  -0.00009   2.06029
    A7        1.95492  -0.00003  -0.00023   0.00004  -0.00019   1.95474
    A8        1.98569   0.00001  -0.00008   0.00017   0.00009   1.98578
    A9        1.86078   0.00003   0.00022  -0.00006   0.00015   1.86093
   A10        1.88058   0.00002   0.00023   0.00004   0.00027   1.88086
   A11        1.90001  -0.00001  -0.00012   0.00003  -0.00009   1.89992
   A12        1.87907  -0.00003  -0.00002  -0.00024  -0.00026   1.87880
   A13        2.12061   0.00006   0.00039  -0.00001   0.00038   2.12100
   A14        2.05909  -0.00009  -0.00030  -0.00033  -0.00063   2.05846
   A15        2.10346   0.00003  -0.00009   0.00033   0.00025   2.10371
   A16        2.16552   0.00003   0.00039  -0.00022   0.00017   2.16570
   A17        2.12534   0.00012   0.00085  -0.00013   0.00072   2.12606
   A18        2.11282  -0.00013  -0.00069  -0.00019  -0.00088   2.11194
   A19        2.04503   0.00001  -0.00016   0.00032   0.00016   2.04518
   A20        2.12095  -0.00001  -0.00014   0.00005  -0.00009   2.12086
   A21        2.12380   0.00005   0.00021   0.00004   0.00025   2.12404
   A22        2.03844  -0.00004  -0.00007  -0.00009  -0.00016   2.03828
   A23        2.12257   0.00001   0.00004   0.00001   0.00005   2.12262
   A24        2.06951   0.00000   0.00006  -0.00003   0.00003   2.06954
   A25        2.09111  -0.00001  -0.00010   0.00001  -0.00009   2.09102
   A26        2.10880   0.00000  -0.00008   0.00007  -0.00000   2.10880
   A27        2.08343  -0.00000   0.00007  -0.00006   0.00000   2.08343
   A28        2.09096  -0.00000   0.00001  -0.00001  -0.00000   2.09095
   A29        2.06515   0.00002   0.00016  -0.00010   0.00006   2.06521
   A30        2.10873   0.00001  -0.00007   0.00013   0.00006   2.10880
   A31        2.10930  -0.00002  -0.00010  -0.00003  -0.00012   2.10918
   A32        2.11644  -0.00000  -0.00006   0.00002  -0.00004   2.11641
   A33        2.08687  -0.00002  -0.00006  -0.00009  -0.00015   2.08672
   A34        2.07987   0.00002   0.00012   0.00007   0.00018   2.08006
   A35        2.11497   0.00001   0.00000   0.00008   0.00008   2.11505
   A36        2.04354   0.00000   0.00009  -0.00005   0.00005   2.04359
   A37        2.12467  -0.00002  -0.00009  -0.00003  -0.00013   2.12454
    D1        0.22551  -0.00004  -0.00116  -0.00141  -0.00256   0.22294
    D2        2.89230  -0.00002  -0.00092  -0.00006  -0.00098   2.89132
    D3       -2.93197  -0.00004  -0.00068  -0.00209  -0.00277  -2.93475
    D4       -0.26518  -0.00002  -0.00044  -0.00075  -0.00119  -0.26637
    D5       -0.01470  -0.00005  -0.00050  -0.00272  -0.00322  -0.01792
    D6        3.12096  -0.00004  -0.00033  -0.00261  -0.00294   3.11802
    D7       -3.13886  -0.00005  -0.00101  -0.00199  -0.00300   3.14133
    D8       -0.00320  -0.00005  -0.00084  -0.00188  -0.00271  -0.00592
    D9       -2.45177   0.00001   0.00006  -0.00037  -0.00031  -2.45208
   D10        1.69334  -0.00001  -0.00000  -0.00060  -0.00060   1.69274
   D11       -0.37516   0.00000  -0.00007  -0.00035  -0.00043  -0.37559
   D12        1.17482  -0.00002  -0.00012  -0.00188  -0.00201   1.17282
   D13       -0.96325  -0.00004  -0.00019  -0.00211  -0.00229  -0.96554
   D14       -3.03175  -0.00003  -0.00026  -0.00186  -0.00212  -3.03388
   D15       -3.13996  -0.00000   0.00026  -0.00028  -0.00002  -3.13998
   D16        0.00772  -0.00001   0.00008  -0.00039  -0.00031   0.00741
   D17        3.13902  -0.00000   0.00005  -0.00022  -0.00016   3.13885
   D18       -0.00222  -0.00000   0.00010  -0.00025  -0.00016  -0.00238
   D19       -3.14152   0.00000   0.00008  -0.00002   0.00006  -3.14146
   D20        0.00001   0.00000   0.00004   0.00002   0.00006   0.00007
   D21       -0.00027   0.00000   0.00003   0.00002   0.00005  -0.00022
   D22        3.14126   0.00000  -0.00001   0.00006   0.00005   3.14131
   D23        3.14150  -0.00000  -0.00004   0.00000  -0.00004   3.14146
   D24       -0.00020  -0.00000  -0.00003  -0.00001  -0.00003  -0.00024
   D25       -0.00003  -0.00000   0.00000  -0.00004  -0.00004  -0.00007
   D26        3.14145  -0.00000   0.00002  -0.00005  -0.00003   3.14142
   D27       -3.14153   0.00000   0.00002   0.00004   0.00006  -3.14147
   D28        0.00028   0.00000   0.00005  -0.00001   0.00005   0.00032
   D29        0.00000   0.00000  -0.00002   0.00008   0.00006   0.00006
   D30       -3.14138   0.00000   0.00001   0.00003   0.00004  -3.14133
   D31        0.00002  -0.00000   0.00001  -0.00001  -0.00000   0.00001
   D32        3.14144   0.00000   0.00001   0.00000   0.00001   3.14145
   D33       -3.14147  -0.00000  -0.00001   0.00000  -0.00001  -3.14148
   D34       -0.00004   0.00000  -0.00001   0.00001   0.00000  -0.00004
   D35        0.00003   0.00000   0.00000   0.00002   0.00002   0.00005
   D36        3.14138   0.00000  -0.00000   0.00000   0.00000   3.14138
   D37       -3.14139   0.00000   0.00000   0.00001   0.00001  -3.14138
   D38       -0.00005  -0.00000  -0.00000  -0.00001  -0.00001  -0.00006
   D39       -0.00006   0.00000  -0.00002   0.00002   0.00000  -0.00006
   D40        3.14138  -0.00000  -0.00000  -0.00001  -0.00001   3.14137
   D41       -3.14141   0.00000  -0.00002   0.00004   0.00002  -3.14139
   D42        0.00004   0.00000   0.00000   0.00000   0.00000   0.00004
   D43        0.00005  -0.00000   0.00003  -0.00007  -0.00004   0.00000
   D44        3.14142  -0.00000  -0.00000  -0.00003  -0.00003   3.14139
   D45       -3.14140  -0.00000   0.00001  -0.00004  -0.00003  -3.14143
   D46       -0.00003  -0.00000  -0.00002   0.00001  -0.00001  -0.00004
         Item               Value     Threshold  Converged?
 Maximum Force            0.000403     0.000450     YES
 RMS     Force            0.000066     0.000300     YES
 Maximum Displacement     0.010627     0.001800     NO 
 RMS     Displacement     0.002456     0.001200     NO 
 Predicted change in Energy=-1.033900D-06
 GradGradGradGradGradGradGradGradGradGradGradGradGradGradGradGradGradGrad

                          Input orientation:                          
 ---------------------------------------------------------------------
 Center     Atomic      Atomic             Coordinates (Angstroms)
 Number     Number       Type             X           Y           Z
 ---------------------------------------------------------------------
      1          8           0        2.873368    1.430441    0.012207
      2          6           0        2.900252    0.206333   -0.040521
      3          7           0        4.142182   -0.459056   -0.087996
      4          6           0        5.355046    0.248214    0.197126
      5          6           0        1.771692   -0.698024   -0.083326
      6          7           0        0.530853   -0.254022   -0.048174
      7          6           0       -0.526350   -1.026397   -0.082249
      8          6           0       -1.862917   -0.487713   -0.037663
      9          6           0       -3.000760   -1.328113   -0.074704
     10          6           0       -4.291640   -0.810497   -0.031637
     11          6           0       -4.508053    0.566863    0.050218
     12          6           0       -3.391623    1.414862    0.087836
     13          6           0       -2.101636    0.908388    0.045432
     14          1           0        4.117137   -1.452575    0.095408
     15          1           0        6.177572   -0.054616   -0.473436
     16          1           0        5.707780    0.127649    1.240705
     17          1           0        5.142125    1.313182    0.038818
     18          1           0        1.978984   -1.783397   -0.152540
     19          1           0       -0.426591   -2.127436   -0.146612
     20          1           0       -2.850499   -2.409708   -0.138894
     21          1           0       -5.145038   -1.494006   -0.062631
     22          1           0       -5.520831    0.972974    0.083809
     23          1           0       -3.537820    2.496904    0.151684
     24          1           0       -1.227585    1.561161    0.074048
 ---------------------------------------------------------------------
                    Distance matrix (angstroms):
                    1          2          3          4          5
     1  O    0.000000
     2  C    1.225538   0.000000
     3  N    2.278186   1.409747   0.000000
     4  C    2.755101   2.466626   1.432678   0.000000
     5  C    2.398579   1.446838   2.382509   3.716779   0.000000
     6  N    2.885903   2.413718   3.617364   4.856465   1.318353
     7  C    4.195600   3.641836   4.702883   6.024410   2.321385
     8  C    5.110205   4.813469   6.005379   7.259181   3.640975
     9  C    6.490189   6.097347   7.195628   8.507538   4.813875
    10  C    7.507400   7.263424   8.441329   9.707304   6.064595
    11  C    7.431863   7.417628   8.711957   9.869339   6.407260
    12  C    6.265467   6.408175   7.765353   8.824808   5.581524
    13  C    5.002430   5.051648   6.393197   7.487386   4.195212
    14  H    3.140966   2.061859   1.010616   2.106051   2.470305
    15  H    3.654998   3.316073   2.110675   1.103589   4.469668
    16  H    3.352665   3.087060   2.135594   1.108157   4.234097
    17  H    2.271941   2.501480   2.038822   1.097521   3.926791
    18  H    3.340033   2.195521   2.537218   3.955693   1.107157
    19  H    4.855249   4.065171   4.864218   6.260128   2.622913
    20  H    6.894362   6.318583   7.259837   8.631827   4.929260
    21  H    8.535387   8.223037   9.344743  10.646811   6.962412
    22  H    8.406960   8.456822   9.770059  10.900588   7.483386
    23  H    6.500779   6.836113   8.232715   9.172881   6.201106
    24  H    4.103502   4.346001   5.739507   6.713420   3.758237
                    6          7          8          9         10
     6  N    0.000000
     7  C    1.309734   0.000000
     8  C    2.405173   1.441728   0.000000
     9  C    3.691432   2.492748   1.415037   0.000000
    10  C    4.854521   3.771814   2.450086   1.391456   0.000000
    11  C    5.106282   4.290686   2.848965   2.424556   1.396659
    12  C    4.264914   3.768085   2.443867   2.775446   2.403440
    13  C    2.879229   2.498243   1.418798   2.413460   2.785071
    14  H    3.783990   4.666387   6.058854   7.121018   8.434212
    15  H    5.666220   6.785275   8.063928   9.274835  10.505757
    16  H    5.348593   6.476604   7.702489   8.926825  10.123604
    17  H    4.871091   6.133507   7.233235   8.561303   9.670103
    18  H    2.108782   2.618146   4.056130   5.001119   6.346800
    19  H    2.106198   1.107420   2.182565   2.696374   4.084868
    20  H    4.011079   2.705259   2.163246   1.093868   2.155427
    21  H    5.809777   4.642340   3.433011   2.150719   1.093816
    22  H    6.176230   5.382369   3.940647   3.416268   2.169103
    23  H    4.915450   4.640833   3.427695   3.869165   3.397168
    24  H    2.530204   2.685445   2.148025   3.393255   3.876127
                   11         12         13         14         15
    11  C    0.000000
    12  C    1.402474   0.000000
    13  C    2.430536   1.386500   0.000000
    14  H    8.858560   8.037645   6.652051   0.000000
    15  H   10.716485   9.697623   8.351161   2.554068   0.000000
    16  H   10.294338   9.262027   7.938841   2.517728   1.786674
    17  H    9.679001   8.534495   7.255066   2.950121   1.790371
    18  H    6.902643   6.255402   4.892479   2.177756   4.551901
    19  H    4.894519   4.625392   3.472590   4.599943   6.929529
    20  H    3.412217   3.869310   3.406542   7.036971   9.336190
    21  H    2.160015   3.399797   3.878849   9.263616  11.421125
    22  H    1.091684   2.174582   3.420020   9.938504  11.756662
    23  H    2.162569   1.093739   2.144132   8.613938  10.064288
    24  H    3.427925   2.169021   1.091282   6.135888   7.599133
                   16         17         18         19         20
    16  H    0.000000
    17  H    1.780446   0.000000
    18  H    4.415557   4.430676   0.000000
    19  H    6.681359   6.548499   2.430059   0.000000
    20  H    9.032475   8.818931   4.869944   2.440301   0.000000
    21  H   11.050434  10.663786   7.130464   4.761515   2.471687
    22  H   11.319659  10.668477   7.993789   5.967991   4.315415
    23  H    9.606272   8.761016   6.989181   5.581509   4.963032
    24  H    7.177418   6.374633   4.638911   3.781008   4.294996
                   21         22         23         24
    21  H    0.000000
    22  H    2.499731   0.000000
    23  H    4.307719   2.501859   0.000000
    24  H    4.969825   4.333361   2.493758   0.000000
 Stoichiometry    C10H11N2O(1-)
 Framework group  C1[X(C10H11N2O)]
 Deg. of freedom    66
 Full point group                 C1      NOp   1
 Largest Abelian subgroup         C1      NOp   1
 Largest concise Abelian subgroup C1      NOp   1
                         Standard orientation:                         
 ---------------------------------------------------------------------
 Center     Atomic      Atomic             Coordinates (Angstroms)
 Number     Number       Type             X           Y           Z
 ---------------------------------------------------------------------
      1          8           0        2.876954    1.399992   -0.085268
      2          6           0        2.880445    0.174596   -0.066975
      3          7           0        4.109319   -0.516094   -0.081197
      4          6           0        5.336860    0.183146    0.157069
      5          6           0        1.734804   -0.708937   -0.052266
      6          7           0        0.502775   -0.239957   -0.037501
      7          6           0       -0.568985   -0.992615   -0.022049
      8          6           0       -1.894884   -0.426748   -0.002942
      9          6           0       -3.048569   -1.245931    0.013850
     10          6           0       -4.329196   -0.702057    0.032464
     11          6           0       -4.519128    0.681624    0.035184
     12          6           0       -3.386706    1.508836    0.018621
     13          6           0       -2.106758    0.976138    0.000026
     14          1           0        4.066539   -1.496654    0.159671
     15          1           0        6.149831   -0.173734   -0.498387
     16          1           0        5.692980    0.116522    1.204329
     17          1           0        5.143206    1.241034   -0.061850
     18          1           0        1.921195   -1.800269   -0.059274
     19          1           0       -0.490375   -2.097242   -0.022835
     20          1           0       -2.919098   -2.332108    0.011888
     21          1           0       -5.195497   -1.369740    0.044939
     22          1           0       -5.523863    1.108326    0.049589
     23          1           0       -3.512108    2.595362    0.020198
     24          1           0       -1.220401    1.612609   -0.013128
 ---------------------------------------------------------------------
 Rotational constants (GHZ):           3.2093228           0.2702432           0.2498440
 Standard basis: def2SVP (5D, 7F)
 There are   250 symmetry adapted cartesian basis functions of A   symmetry.
 There are   237 symmetry adapted basis functions of A   symmetry.
   237 basis functions,   402 primitive gaussians,   250 cartesian basis functions
    47 alpha electrons       47 beta electrons
       nuclear repulsion energy       687.3465541801 Hartrees.
 NAtoms=   24 NActive=   24 NUniq=   24 SFac= 1.00D+00 NAtFMM=   60 NAOKFM=F Big=F
 Integral buffers will be    131072 words long.
 Raffenetti 2 integral format.
 Two-electron integral symmetry is turned on.
 Nuclear repulsion after empirical dispersion term =      687.3457609851 Hartrees.
 One-electron integrals computed using PRISM.
   1 Symmetry operations used in ECPInt.
 ECPInt:  NShTT=    6216 NPrTT=   22568 LenC2=    5549 LenP2D=   14676.
 LDataN:  DoStor=T MaxTD1= 4 Len=   56
 NBasis=   237 RedAO= T EigKep=  3.05D-04  NBF=   237
 NBsUse=   237 1.00D-06 EigRej= -1.00D+00 NBFU=   237
 Initial guess from the checkpoint file:  "vsa3_crest_conformers-3.chk"
 B after Tr=    -0.000000    0.000000    0.000000
         Rot=    1.000000    0.000038    0.000001   -0.000025 Ang=   0.01 deg.
 Requested convergence on RMS density matrix=1.00D-08 within 128 cycles.
 Requested convergence on MAX density matrix=1.00D-06.
 Requested convergence on             energy=1.00D-06.
 No special actions if energy rises.
 SCF Done:  E(RM062X) =  -571.769035344     A.U. after    9 cycles
            NFock=  9  Conv=0.64D-08     -V/T= 2.0101
   1 Symmetry operations used in ECPInt.
 ECPInt:  NShTT=    6216 NPrTT=   22568 LenC2=    5549 LenP2D=   14676.
 LDataN:  DoStor=T MaxTD1= 5 Len=  102
 Calling FoFJK, ICntrl=      2127 FMM=F ISym2X=0 I1Cent= 0 IOpClX= 0 NMat=1 NMatS=1 NMatT=0.
 ***** Axes restored to original set *****
 -------------------------------------------------------------------
 Center     Atomic                   Forces (Hartrees/Bohr)
 Number     Number              X              Y              Z
 -------------------------------------------------------------------
      1        8           0.000060333   -0.000070860   -0.000008927
      2        6           0.000030435    0.000020239   -0.000009627
      3        7          -0.000039699    0.000049420    0.000093823
      4        6          -0.000048629   -0.000034581   -0.000053613
      5        6          -0.000108365    0.000025666   -0.000009404
      6        7           0.000045215    0.000004595    0.000023207
      7        6          -0.000054844   -0.000011184   -0.000000207
      8        6           0.000070528   -0.000017129   -0.000002497
      9        6          -0.000011214    0.000011011    0.000000621
     10        6           0.000019037    0.000012479   -0.000000005
     11        6          -0.000005296   -0.000013487    0.000000069
     12        6           0.000032212   -0.000012356   -0.000000634
     13        6          -0.000032257   -0.000010588    0.000001116
     14        1           0.000006694    0.000000306   -0.000026464
     15        1           0.000018637   -0.000010526   -0.000001928
     16        1           0.000005521    0.000023966    0.000021428
     17        1           0.000004962    0.000036991    0.000004712
     18        1           0.000004521   -0.000008055   -0.000032274
     19        1           0.000006582   -0.000007163    0.000000245
     20        1           0.000002755   -0.000018906   -0.000002688
     21        1          -0.000012189   -0.000017399   -0.000001838
     22        1          -0.000015315    0.000009362    0.000001440
     23        1          -0.000003040    0.000019390    0.000002568
     24        1           0.000023416    0.000018811    0.000000875
 -------------------------------------------------------------------
 Cartesian Forces:  Max     0.000108365 RMS     0.000029721

 GradGradGradGradGradGradGradGradGradGradGradGradGradGradGradGradGradGrad
 Berny optimization.
 Using GEDIIS/GDIIS optimizer.
 FormGI is forming the generalized inverse of G from B-inverse, IUseBI=4.
 Internal  Forces:  Max     0.000089456 RMS     0.000022372
 Search for a local minimum.
 Step number   6 out of a maximum of  117
 All quantities printed in internal units (Hartrees-Bohrs-Radians)
 Mixed Optimization -- En-DIIS/RFO-DIIS
 Swapping is turned off.
 Update second derivatives using D2CorX and points    1    2    3    4    5
                                                      6
 DE= -1.35D-06 DEPred=-1.03D-06 R= 1.30D+00
 TightC=F SS=  1.41D+00  RLast= 8.46D-03 DXNew= 7.5649D-01 2.5379D-02
 Trust test= 1.30D+00 RLast= 8.46D-03 DXMaxT set to 4.50D-01
 ITU=  1  1  1  0  1  0
     Eigenvalues ---    0.00879   0.01304   0.01772   0.01785   0.01818
     Eigenvalues ---    0.01943   0.02050   0.02176   0.02202   0.02209
     Eigenvalues ---    0.02209   0.02237   0.02276   0.02287   0.02322
     Eigenvalues ---    0.02332   0.02774   0.02998   0.05737   0.07112
     Eigenvalues ---    0.07881   0.13777   0.15367   0.15714   0.16000
     Eigenvalues ---    0.16000   0.16000   0.16000   0.16004   0.16039
     Eigenvalues ---    0.16058   0.16090   0.20852   0.21999   0.22023
     Eigenvalues ---    0.22371   0.23023   0.23608   0.24536   0.24969
     Eigenvalues ---    0.26228   0.30529   0.32627   0.32815   0.33955
     Eigenvalues ---    0.34557   0.35040   0.35560   0.35641   0.35765
     Eigenvalues ---    0.35921   0.37184   0.37817   0.41154   0.42147
     Eigenvalues ---    0.42682   0.42929   0.46092   0.46355   0.47353
     Eigenvalues ---    0.48188   0.49359   0.52230   0.61990   0.69351
     Eigenvalues ---    0.82434
 En-DIIS/RFO-DIIS/Sim-DIIS IScMMF=       -3 using points:     6    5    4    3
 RFO step:  Lambda=-6.98110056D-07.
 DidBck=F Rises=F RFO-DIIS coefs:    1.85270   -0.82369   -0.01866   -0.01035
 Iteration  1 RMS(Cart)=  0.00176340 RMS(Int)=  0.00000272
 Iteration  2 RMS(Cart)=  0.00000350 RMS(Int)=  0.00000070
 Iteration  3 RMS(Cart)=  0.00000000 RMS(Int)=  0.00000070
 Variable       Old X    -DE/DX   Delta X   Delta X   Delta X     New X
                                 (Linear)    (Quad)   (Total)
    R1        2.31593  -0.00007   0.00051  -0.00053  -0.00002   2.31591
    R2        2.66404  -0.00008   0.00007  -0.00018  -0.00010   2.66393
    R3        2.73413   0.00004  -0.00062   0.00059  -0.00004   2.73409
    R4        2.70737  -0.00002  -0.00034   0.00011  -0.00023   2.70714
    R5        1.90979  -0.00000  -0.00002  -0.00001  -0.00003   1.90976
    R6        2.08548   0.00002  -0.00021   0.00022   0.00001   2.08549
    R7        2.09411   0.00002  -0.00019   0.00021   0.00003   2.09414
    R8        2.07401   0.00003  -0.00024   0.00028   0.00004   2.07406
    R9        2.49133  -0.00007  -0.00021  -0.00004  -0.00024   2.49108
   R10        2.09222   0.00001   0.00011  -0.00005   0.00006   2.09229
   R11        2.47504   0.00000   0.00019  -0.00011   0.00008   2.47512
   R12        2.72447  -0.00007  -0.00050   0.00012  -0.00038   2.72409
   R13        2.09272   0.00001   0.00013  -0.00007   0.00006   2.09278
   R14        2.67403   0.00001   0.00012  -0.00008   0.00004   2.67407
   R15        2.68114   0.00000   0.00021  -0.00013   0.00008   2.68122
   R16        2.62947  -0.00000   0.00009  -0.00007   0.00002   2.62949
   R17        2.06711   0.00002  -0.00022   0.00021  -0.00001   2.06710
   R18        2.63930   0.00001  -0.00009   0.00007  -0.00002   2.63929
   R19        2.06701   0.00002  -0.00023   0.00022  -0.00001   2.06700
   R20        2.65029   0.00002   0.00001   0.00004   0.00005   2.65034
   R21        2.06298   0.00002  -0.00015   0.00015   0.00000   2.06299
   R22        2.62010  -0.00001   0.00001  -0.00006  -0.00006   2.62005
   R23        2.06687   0.00002  -0.00024   0.00023  -0.00001   2.06686
   R24        2.06222   0.00003  -0.00025   0.00026   0.00002   2.06224
    A1        2.08543  -0.00009   0.00015  -0.00047  -0.00032   2.08511
    A2        2.22495   0.00005   0.00005   0.00021   0.00026   2.22521
    A3        1.97267   0.00004  -0.00019   0.00026   0.00006   1.97274
    A4        2.10144  -0.00003   0.00055  -0.00043   0.00012   2.10155
    A5        2.02202   0.00001   0.00014   0.00010   0.00025   2.02226
    A6        2.06029   0.00002  -0.00006   0.00042   0.00036   2.06065
    A7        1.95474   0.00000  -0.00018   0.00020   0.00002   1.95476
    A8        1.98578   0.00001   0.00008   0.00009   0.00017   1.98595
    A9        1.86093   0.00002   0.00016   0.00004   0.00020   1.86113
   A10        1.88086  -0.00001   0.00025  -0.00025  -0.00000   1.88085
   A11        1.89992  -0.00000  -0.00009   0.00005  -0.00005   1.89988
   A12        1.87880  -0.00002  -0.00023  -0.00013  -0.00037   1.87844
   A13        2.12100   0.00003   0.00035  -0.00015   0.00020   2.12120
   A14        2.05846  -0.00002  -0.00057   0.00028  -0.00029   2.05817
   A15        2.10371  -0.00001   0.00021  -0.00013   0.00009   2.10380
   A16        2.16570  -0.00003   0.00019  -0.00028  -0.00009   2.16561
   A17        2.12606  -0.00004   0.00069  -0.00074  -0.00004   2.12602
   A18        2.11194   0.00002  -0.00081   0.00065  -0.00016   2.11178
   A19        2.04518   0.00003   0.00012   0.00009   0.00020   2.04539
   A20        2.12086   0.00002  -0.00009   0.00014   0.00005   2.12091
   A21        2.12404  -0.00002   0.00023  -0.00024  -0.00001   2.12404
   A22        2.03828   0.00000  -0.00014   0.00010  -0.00004   2.03824
   A23        2.12262  -0.00000   0.00005  -0.00005  -0.00000   2.12262
   A24        2.06954   0.00000   0.00004   0.00000   0.00004   2.06958
   A25        2.09102   0.00000  -0.00009   0.00005  -0.00004   2.09098
   A26        2.10880   0.00000  -0.00001   0.00003   0.00002   2.10882
   A27        2.08343  -0.00001   0.00001  -0.00007  -0.00007   2.08337
   A28        2.09095   0.00000   0.00000   0.00004   0.00005   2.09100
   A29        2.06521  -0.00000   0.00007  -0.00007  -0.00001   2.06520
   A30        2.10880   0.00001   0.00005   0.00002   0.00006   2.10886
   A31        2.10918  -0.00000  -0.00012   0.00006  -0.00006   2.10912
   A32        2.11641  -0.00000  -0.00004   0.00003  -0.00001   2.11640
   A33        2.08672   0.00000  -0.00013   0.00009  -0.00003   2.08669
   A34        2.08006   0.00000   0.00017  -0.00012   0.00004   2.08010
   A35        2.11505   0.00000   0.00007  -0.00003   0.00004   2.11509
   A36        2.04359  -0.00000   0.00005  -0.00004   0.00001   2.04360
   A37        2.12454  -0.00000  -0.00012   0.00007  -0.00004   2.12450
    D1        0.22294  -0.00003  -0.00239  -0.00012  -0.00251   0.22043
    D2        2.89132  -0.00001  -0.00101   0.00021  -0.00080   2.89052
    D3       -2.93475  -0.00002  -0.00238  -0.00017  -0.00255  -2.93730
    D4       -0.26637  -0.00000  -0.00100   0.00015  -0.00084  -0.26721
    D5       -0.01792  -0.00002  -0.00275  -0.00001  -0.00276  -0.02067
    D6        3.11802  -0.00002  -0.00248  -0.00018  -0.00266   3.11536
    D7        3.14133  -0.00003  -0.00276   0.00006  -0.00271   3.13863
    D8       -0.00592  -0.00003  -0.00250  -0.00011  -0.00261  -0.00853
    D9       -2.45208  -0.00000  -0.00026  -0.00023  -0.00050  -2.45258
   D10        1.69274  -0.00001  -0.00051  -0.00013  -0.00064   1.69210
   D11       -0.37559   0.00000  -0.00038  -0.00004  -0.00042  -0.37601
   D12        1.17282  -0.00002  -0.00173  -0.00048  -0.00221   1.17061
   D13       -0.96554  -0.00002  -0.00199  -0.00037  -0.00236  -0.96790
   D14       -3.03388  -0.00001  -0.00185  -0.00028  -0.00213  -3.03601
   D15       -3.13998   0.00001  -0.00000   0.00027   0.00027  -3.13971
   D16        0.00741   0.00000  -0.00027   0.00045   0.00018   0.00759
   D17        3.13885   0.00000  -0.00013   0.00012  -0.00001   3.13884
   D18       -0.00238   0.00000  -0.00012   0.00022   0.00010  -0.00228
   D19       -3.14146   0.00000   0.00006   0.00006   0.00012  -3.14134
   D20        0.00007   0.00000   0.00005   0.00007   0.00012   0.00018
   D21       -0.00022   0.00000   0.00005  -0.00003   0.00002  -0.00019
   D22        3.14131  -0.00000   0.00004  -0.00003   0.00002   3.14133
   D23        3.14146  -0.00000  -0.00004   0.00001  -0.00002   3.14143
   D24       -0.00024  -0.00000  -0.00003   0.00001  -0.00002  -0.00026
   D25       -0.00007  -0.00000  -0.00003   0.00001  -0.00002  -0.00009
   D26        3.14142  -0.00000  -0.00002   0.00001  -0.00002   3.14140
   D27       -3.14147   0.00000   0.00005  -0.00003   0.00003  -3.14144
   D28        0.00032   0.00000   0.00005   0.00000   0.00005   0.00037
   D29        0.00006   0.00000   0.00005  -0.00003   0.00002   0.00008
   D30       -3.14133   0.00000   0.00004   0.00000   0.00004  -3.14129
   D31        0.00001   0.00000  -0.00000   0.00000   0.00000   0.00002
   D32        3.14145   0.00000   0.00001  -0.00000   0.00000   3.14146
   D33       -3.14148  -0.00000  -0.00001   0.00000  -0.00000  -3.14148
   D34       -0.00004  -0.00000   0.00000   0.00000   0.00000  -0.00004
   D35        0.00005   0.00000   0.00002   0.00000   0.00002   0.00007
   D36        3.14138   0.00000   0.00000  -0.00000   0.00000   3.14138
   D37       -3.14138   0.00000   0.00001   0.00001   0.00001  -3.14137
   D38       -0.00006   0.00000  -0.00001   0.00000  -0.00000  -0.00006
   D39       -0.00006  -0.00000   0.00000  -0.00002  -0.00002  -0.00008
   D40        3.14137  -0.00000  -0.00001  -0.00001  -0.00002   3.14135
   D41       -3.14139  -0.00000   0.00001  -0.00002  -0.00000  -3.14139
   D42        0.00004  -0.00000   0.00000  -0.00001  -0.00000   0.00004
   D43        0.00000   0.00000  -0.00003   0.00003  -0.00000   0.00000
   D44        3.14139  -0.00000  -0.00003   0.00000  -0.00002   3.14136
   D45       -3.14143   0.00000  -0.00002   0.00002  -0.00000  -3.14143
   D46       -0.00004  -0.00000  -0.00001  -0.00001  -0.00002  -0.00007
         Item               Value     Threshold  Converged?
 Maximum Force            0.000089     0.000450     YES
 RMS     Force            0.000022     0.000300     YES
 Maximum Displacement     0.007919     0.001800     NO 
 RMS     Displacement     0.001763     0.001200     NO 
 Predicted change in Energy=-3.488629D-07
 GradGradGradGradGradGradGradGradGradGradGradGradGradGradGradGradGradGrad

                          Input orientation:                          
 ---------------------------------------------------------------------
 Center     Atomic      Atomic             Coordinates (Angstroms)
 Number     Number       Type             X           Y           Z
 ---------------------------------------------------------------------
      1          8           0        2.873957    1.430336    0.010141
      2          6           0        2.900214    0.206157   -0.041006
      3          7           0        4.142000   -0.459581   -0.085688
      4          6           0        5.354860    0.248262    0.197407
      5          6           0        1.771449   -0.697879   -0.084508
      6          7           0        0.530751   -0.253907   -0.048855
      7          6           0       -0.526447   -1.026346   -0.083241
      8          6           0       -1.862826   -0.487789   -0.038071
      9          6           0       -3.000722   -1.328145   -0.075298
     10          6           0       -4.291585   -0.810509   -0.031628
     11          6           0       -4.507962    0.566799    0.051038
     12          6           0       -3.391487    1.414777    0.088828
     13          6           0       -2.101549    0.908308    0.045829
     14          1           0        4.116753   -1.452732    0.099598
     15          1           0        6.177694   -0.057466   -0.471467
     16          1           0        5.706986    0.131831    1.241675
     17          1           0        5.142624    1.312769    0.034975
     18          1           0        1.978797   -1.783218   -0.154622
     19          1           0       -0.426452   -2.127356   -0.148237
     20          1           0       -2.850554   -2.409711   -0.140117
     21          1           0       -5.144963   -1.494028   -0.062790
     22          1           0       -5.520702    0.972969    0.085105
     23          1           0       -3.537688    2.496777    0.153289
     24          1           0       -1.227499    1.561091    0.074553
 ---------------------------------------------------------------------
                    Distance matrix (angstroms):
                    1          2          3          4          5
     1  O    0.000000
     2  C    1.225528   0.000000
     3  N    2.277916   1.409693   0.000000
     4  C    2.754496   2.466556   1.432555   0.000000
     5  C    2.398704   1.446819   2.382498   3.716920   0.000000
     6  N    2.886306   2.413726   3.617288   4.856423   1.318224
     7  C    4.196040   3.641820   4.702725   6.024380   2.321254
     8  C    5.110640   4.813328   6.005081   7.258940   3.640639
     9  C    6.490637   6.097238   7.195345   8.507361   4.813620
    10  C    7.507870   7.263309   8.441055   9.707077   6.064310
    11  C    7.432368   7.417520   8.711715   9.869050   6.406933
    12  C    6.265957   6.408051   7.765120   8.824462   5.581153
    13  C    5.002944   5.051554   6.392990   7.487101   4.194871
    14  H    3.140800   2.061953   1.010602   2.106147   2.470658
    15  H    3.655158   3.316123   2.110586   1.103593   4.469325
    16  H    3.350947   3.086869   2.135612   1.108172   4.235047
    17  H    2.271847   2.501752   2.038880   1.097544   3.927060
    18  H    3.339968   2.195343   2.536970   3.955836   1.107190
    19  H    4.855404   4.064909   4.863758   6.259920   2.622639
    20  H    6.894821   6.318538   7.259599   8.631776   4.929135
    21  H    8.535824   8.222893   9.344425  10.646575   6.962117
    22  H    8.407443   8.456697   9.769809  10.900259   7.483045
    23  H    6.501306   6.836027   8.232543   9.172523   6.200751
    24  H    4.104045   4.345942   5.739364   6.713126   3.757916
                    6          7          8          9         10
     6  N    0.000000
     7  C    1.309776   0.000000
     8  C    2.405001   1.441525   0.000000
     9  C    3.691340   2.492626   1.415059   0.000000
    10  C    4.854382   3.771672   2.450113   1.391467   0.000000
    11  C    5.106091   4.290525   2.849007   2.424571   1.396649
    12  C    4.264670   3.767910   2.443903   2.775474   2.403452
    13  C    2.879013   2.498097   1.418842   2.413484   2.785064
    14  H    3.783997   4.666320   6.058502   7.120714   8.433850
    15  H    5.666141   6.784907   8.063683   9.274422  10.505538
    16  H    5.348613   6.477072   7.702190   8.926933  10.123276
    17  H    4.871434   6.133824   7.233510   8.561581   9.670420
    18  H    2.108748   2.618052   4.055834   5.000900   6.346572
    19  H    2.106164   1.107450   2.182541   2.696465   4.084964
    20  H    4.011115   2.705256   2.163286   1.093864   2.155409
    21  H    5.809632   4.642180   3.433008   2.150684   1.093812
    22  H    6.176022   5.382210   3.940690   3.416306   2.169135
    23  H    4.915213   4.640680   3.427742   3.869187   3.397159
    24  H    2.529998   2.685368   2.148076   3.393296   3.876130
                   11         12         13         14         15
    11  C    0.000000
    12  C    1.402502   0.000000
    13  C    2.430530   1.386470   0.000000
    14  H    8.858136   8.037188   6.651668   0.000000
    15  H   10.716621   9.697972   8.351418   2.553499   0.000000
    16  H   10.293297   9.260519   7.937644   2.518733   1.786688
    17  H    9.679387   8.534890   7.255463   2.950353   1.790363
    18  H    6.902385   6.255109   4.892210   2.178235   4.550753
    19  H    4.894579   4.625401   3.472587   4.599702   6.928468
    20  H    3.412207   3.869333   3.406587   7.036806   9.335530
    21  H    2.160031   3.399826   3.878837   9.263232  11.420739
    22  H    1.091685   2.174573   3.419989   9.938047  11.756872
    23  H    2.162568   1.093733   2.144126   8.613476  10.064946
    24  H    3.427916   2.168976   1.091291   6.135534   7.599654
                   16         17         18         19         20
    16  H    0.000000
    17  H    1.780237   0.000000
    18  H    4.417742   4.430675   0.000000
    19  H    6.682428   6.548483   2.429752   0.000000
    20  H    9.033287   8.819206   4.869839   2.440504   0.000000
    21  H   11.050332  10.664056   7.130218   4.761591   2.471592
    22  H   11.318398  10.668856   7.993530   5.968068   4.315430
    23  H    9.604246   8.761489   6.988904   5.581515   4.963050
    24  H    7.175795   6.375083   4.638669   3.780998   4.295074
                   21         22         23         24
    21  H    0.000000
    22  H    2.499825   0.000000
    23  H    4.307731   2.501796   0.000000
    24  H    4.969823   4.333312   2.493729   0.000000
 Stoichiometry    C10H11N2O(1-)
 Framework group  C1[X(C10H11N2O)]
 Deg. of freedom    66
 Full point group                 C1      NOp   1
 Largest Abelian subgroup         C1      NOp   1
 Largest concise Abelian subgroup C1      NOp   1
                         Standard orientation:                         
 ---------------------------------------------------------------------
 Center     Atomic      Atomic             Coordinates (Angstroms)
 Number     Number       Type             X           Y           Z
 ---------------------------------------------------------------------
      1          8           0        2.877517    1.399786   -0.087356
      2          6           0        2.880383    0.174426   -0.067302
      3          7           0        4.109118   -0.516455   -0.078589
      4          6           0        5.336653    0.183267    0.157546
      5          6           0        1.734534   -0.708816   -0.053204
      6          7           0        0.502651   -0.239831   -0.038031
      7          6           0       -0.569111   -0.992564   -0.022802
      8          6           0       -1.894820   -0.426784   -0.003215
      9          6           0       -3.048562   -1.245926    0.013482
     10          6           0       -4.329166   -0.701988    0.032591
     11          6           0       -4.519052    0.681689    0.035921
     12          6           0       -3.386580    1.508882    0.019437
     13          6           0       -2.106687    0.976146    0.000352
     14          1           0        4.066144   -1.496499    0.164277
     15          1           0        6.149900   -0.176510   -0.495990
     16          1           0        5.692225    0.120970    1.205273
     17          1           0        5.143662    1.240412   -0.065621
     18          1           0        1.920972   -1.800169   -0.060953
     19          1           0       -0.490273   -2.097203   -0.024062
     20          1           0       -2.919192   -2.332110    0.011049
     21          1           0       -5.195451   -1.369685    0.044976
     22          1           0       -5.523744    1.108483    0.050716
     23          1           0       -3.511978    2.595401    0.021470
     24          1           0       -1.220326    1.612627   -0.012768
 ---------------------------------------------------------------------
 Rotational constants (GHZ):           3.2092960           0.2702496           0.2498511
 Standard basis: def2SVP (5D, 7F)
 There are   250 symmetry adapted cartesian basis functions of A   symmetry.
 There are   237 symmetry adapted basis functions of A   symmetry.
   237 basis functions,   402 primitive gaussians,   250 cartesian basis functions
    47 alpha electrons       47 beta electrons
       nuclear repulsion energy       687.3580096001 Hartrees.
 NAtoms=   24 NActive=   24 NUniq=   24 SFac= 1.00D+00 NAtFMM=   60 NAOKFM=F Big=F
 Integral buffers will be    131072 words long.
 Raffenetti 2 integral format.
 Two-electron integral symmetry is turned on.
 Nuclear repulsion after empirical dispersion term =      687.3572164241 Hartrees.
 One-electron integrals computed using PRISM.
   1 Symmetry operations used in ECPInt.
 ECPInt:  NShTT=    6216 NPrTT=   22568 LenC2=    5549 LenP2D=   14676.
 LDataN:  DoStor=T MaxTD1= 4 Len=   56
 NBasis=   237 RedAO= T EigKep=  3.05D-04  NBF=   237
 NBsUse=   237 1.00D-06 EigRej= -1.00D+00 NBFU=   237
 Initial guess from the checkpoint file:  "vsa3_crest_conformers-3.chk"
 B after Tr=     0.000000    0.000000   -0.000000
         Rot=    1.000000    0.000077    0.000001    0.000011 Ang=   0.01 deg.
 Requested convergence on RMS density matrix=1.00D-08 within 128 cycles.
 Requested convergence on MAX density matrix=1.00D-06.
 Requested convergence on             energy=1.00D-06.
 No special actions if energy rises.
 SCF Done:  E(RM062X) =  -571.769035742     A.U. after    9 cycles
            NFock=  9  Conv=0.40D-08     -V/T= 2.0101
   1 Symmetry operations used in ECPInt.
 ECPInt:  NShTT=    6216 NPrTT=   22568 LenC2=    5549 LenP2D=   14676.
 LDataN:  DoStor=T MaxTD1= 5 Len=  102
 Calling FoFJK, ICntrl=      2127 FMM=F ISym2X=0 I1Cent= 0 IOpClX= 0 NMat=1 NMatS=1 NMatT=0.
 ***** Axes restored to original set *****
 -------------------------------------------------------------------
 Center     Atomic                   Forces (Hartrees/Bohr)
 Number     Number              X              Y              Z
 -------------------------------------------------------------------
      1        8          -0.000021999   -0.000034887   -0.000000181
      2        6           0.000116616    0.000064838   -0.000010650
      3        7          -0.000090454   -0.000008731    0.000039632
      4        6           0.000017470    0.000020654   -0.000023014
      5        6          -0.000005649   -0.000046045   -0.000000426
      6        7          -0.000033038    0.000035623    0.000008008
      7        6           0.000061095   -0.000061338   -0.000005203
      8        6          -0.000051227    0.000027644    0.000002803
      9        6          -0.000017638    0.000025826    0.000001115
     10        6           0.000030827    0.000005822   -0.000000418
     11        6           0.000000704    0.000004237    0.000000403
     12        6           0.000004666   -0.000030615   -0.000000404
     13        6          -0.000013573   -0.000015409   -0.000000523
     14        1           0.000017550   -0.000002611   -0.000023778
     15        1           0.000014196   -0.000019682    0.000000127
     16        1           0.000004016    0.000004075    0.000019647
     17        1          -0.000008201    0.000013190    0.000000783
     18        1          -0.000008434    0.000001971   -0.000007642
     19        1          -0.000007382    0.000013509   -0.000001045
     20        1           0.000007270   -0.000020859   -0.000002705
     21        1          -0.000018884   -0.000015647   -0.000001567
     22        1          -0.000016784    0.000003150    0.000000922
     23        1           0.000000109    0.000023764    0.000002780
     24        1           0.000018745    0.000011520    0.000001335
 -------------------------------------------------------------------
 Cartesian Forces:  Max     0.000116616 RMS     0.000027517

 GradGradGradGradGradGradGradGradGradGradGradGradGradGradGradGradGradGrad
 Berny optimization.
 Using GEDIIS/GDIIS optimizer.
 FormGI is forming the generalized inverse of G from B-inverse, IUseBI=4.
 Internal  Forces:  Max     0.000060769 RMS     0.000013726
 Search for a local minimum.
 Step number   7 out of a maximum of  117
 All quantities printed in internal units (Hartrees-Bohrs-Radians)
 Mixed Optimization -- En-DIIS/RFO-DIIS
 Swapping is turned off.
 Update second derivatives using D2CorX and points    1    2    3    4    5
                                                      6    7
 DE= -3.99D-07 DEPred=-3.49D-07 R= 1.14D+00
 Trust test= 1.14D+00 RLast= 7.75D-03 DXMaxT set to 4.50D-01
 ITU=  0  1  1  1  0  1  0
     Eigenvalues ---    0.00603   0.01347   0.01780   0.01785   0.01833
     Eigenvalues ---    0.01943   0.02050   0.02176   0.02202   0.02209
     Eigenvalues ---    0.02209   0.02237   0.02276   0.02287   0.02322
     Eigenvalues ---    0.02332   0.02776   0.03000   0.05727   0.07142
     Eigenvalues ---    0.07870   0.13904   0.15402   0.15843   0.16000
     Eigenvalues ---    0.16000   0.16000   0.16003   0.16005   0.16041
     Eigenvalues ---    0.16081   0.16160   0.20998   0.21999   0.22017
     Eigenvalues ---    0.22366   0.22814   0.23624   0.24783   0.25088
     Eigenvalues ---    0.26533   0.32329   0.32643   0.33111   0.33942
     Eigenvalues ---    0.34528   0.35274   0.35557   0.35641   0.35736
     Eigenvalues ---    0.35918   0.36407   0.38755   0.41911   0.42324
     Eigenvalues ---    0.42639   0.43915   0.46105   0.46387   0.47256
     Eigenvalues ---    0.48232   0.49124   0.52168   0.63110   0.70133
     Eigenvalues ---    0.81679
 En-DIIS/RFO-DIIS/Sim-DIIS IScMMF=       -3 using points:     7    6    5    4    3
 RFO step:  Lambda=-1.40823845D-07.
 DidBck=F Rises=F RFO-DIIS coefs:    1.25413   -0.05269   -0.22936    0.02256    0.00536
 Iteration  1 RMS(Cart)=  0.00076534 RMS(Int)=  0.00000071
 Iteration  2 RMS(Cart)=  0.00000064 RMS(Int)=  0.00000044
 Variable       Old X    -DE/DX   Delta X   Delta X   Delta X     New X
                                 (Linear)    (Quad)   (Total)
    R1        2.31591  -0.00003   0.00007  -0.00011  -0.00004   2.31587
    R2        2.66393  -0.00004   0.00003  -0.00011  -0.00008   2.66386
    R3        2.73409   0.00006  -0.00010   0.00022   0.00012   2.73421
    R4        2.70714   0.00003  -0.00014   0.00013  -0.00001   2.70713
    R5        1.90976  -0.00000   0.00002  -0.00003  -0.00001   1.90975
    R6        2.08549   0.00002   0.00000   0.00004   0.00004   2.08553
    R7        2.09414   0.00002   0.00001   0.00005   0.00006   2.09420
    R8        2.07406   0.00001  -0.00001   0.00005   0.00003   2.07409
    R9        2.49108   0.00004  -0.00012   0.00012  -0.00000   2.49108
   R10        2.09229  -0.00000   0.00004  -0.00003   0.00000   2.09229
   R11        2.47512   0.00002   0.00004   0.00002   0.00006   2.47518
   R12        2.72409   0.00006  -0.00017   0.00022   0.00005   2.72414
   R13        2.09278  -0.00001   0.00005  -0.00008  -0.00003   2.09275
   R14        2.67407   0.00000   0.00006  -0.00004   0.00002   2.67409
   R15        2.68122  -0.00001   0.00009  -0.00007   0.00002   2.68124
   R16        2.62949  -0.00001   0.00007  -0.00006   0.00000   2.62949
   R17        2.06710   0.00002  -0.00000   0.00005   0.00005   2.06715
   R18        2.63929   0.00001   0.00002  -0.00002   0.00001   2.63929
   R19        2.06700   0.00002  -0.00000   0.00006   0.00005   2.06706
   R20        2.65034   0.00001   0.00006  -0.00003   0.00003   2.65037
   R21        2.06299   0.00002   0.00002   0.00002   0.00004   2.06302
   R22        2.62005   0.00000   0.00003  -0.00003  -0.00001   2.62004
   R23        2.06686   0.00002  -0.00000   0.00006   0.00005   2.06691
   R24        2.06224   0.00002   0.00001   0.00004   0.00005   2.06229
    A1        2.08511   0.00003   0.00014  -0.00007   0.00007   2.08518
    A2        2.22521  -0.00003   0.00004  -0.00009  -0.00005   2.22517
    A3        1.97274  -0.00000  -0.00019   0.00016  -0.00003   1.97271
    A4        2.10155  -0.00001   0.00014  -0.00006   0.00008   2.10163
    A5        2.02226   0.00001   0.00011   0.00011   0.00022   2.02248
    A6        2.06065  -0.00000   0.00008   0.00005   0.00012   2.06077
    A7        1.95476  -0.00001  -0.00000  -0.00001  -0.00002   1.95474
    A8        1.98595   0.00000   0.00008  -0.00004   0.00004   1.98599
    A9        1.86113  -0.00000   0.00007  -0.00002   0.00005   1.86118
   A10        1.88085  -0.00000   0.00002  -0.00007  -0.00004   1.88081
   A11        1.89988   0.00001  -0.00002   0.00012   0.00010   1.89997
   A12        1.87844  -0.00000  -0.00015   0.00003  -0.00012   1.87832
   A13        2.12120   0.00000   0.00008  -0.00004   0.00004   2.12124
   A14        2.05817   0.00001  -0.00017   0.00013  -0.00004   2.05814
   A15        2.10380  -0.00001   0.00009  -0.00010  -0.00000   2.10380
   A16        2.16561  -0.00001  -0.00003   0.00000  -0.00002   2.16559
   A17        2.12602  -0.00002   0.00004  -0.00008  -0.00004   2.12598
   A18        2.11178   0.00002  -0.00014   0.00014   0.00000   2.11178
   A19        2.04539   0.00000   0.00010  -0.00006   0.00004   2.04543
   A20        2.12091   0.00001   0.00001   0.00002   0.00003   2.12095
   A21        2.12404  -0.00001   0.00002  -0.00003  -0.00000   2.12403
   A22        2.03824  -0.00000  -0.00004   0.00000  -0.00003   2.03820
   A23        2.12262   0.00000   0.00001   0.00002   0.00002   2.12265
   A24        2.06958  -0.00001   0.00001  -0.00003  -0.00002   2.06956
   A25        2.09098   0.00000  -0.00002   0.00002  -0.00000   2.09098
   A26        2.10882   0.00000   0.00001   0.00000   0.00002   2.10883
   A27        2.08337  -0.00000  -0.00003   0.00001  -0.00002   2.08335
   A28        2.09100  -0.00000   0.00001  -0.00001   0.00000   2.09100
   A29        2.06520  -0.00001  -0.00001  -0.00003  -0.00004   2.06516
   A30        2.10886   0.00000   0.00004  -0.00002   0.00002   2.10888
   A31        2.10912   0.00001  -0.00003   0.00005   0.00002   2.10914
   A32        2.11640   0.00000  -0.00000   0.00003   0.00003   2.11643
   A33        2.08669   0.00000  -0.00003   0.00003  -0.00000   2.08668
   A34        2.08010  -0.00001   0.00003  -0.00006  -0.00002   2.08008
   A35        2.11509   0.00000   0.00002  -0.00001   0.00001   2.11510
   A36        2.04360  -0.00000   0.00000  -0.00001  -0.00001   2.04359
   A37        2.12450   0.00000  -0.00003   0.00003   0.00000   2.12450
    D1        0.22043  -0.00001  -0.00112   0.00006  -0.00105   0.21938
    D2        2.89052  -0.00000  -0.00038   0.00029  -0.00009   2.89043
    D3       -2.93730  -0.00000  -0.00109   0.00009  -0.00100  -2.93830
    D4       -0.26721   0.00000  -0.00035   0.00031  -0.00003  -0.26725
    D5       -0.02067  -0.00000  -0.00125   0.00025  -0.00099  -0.02167
    D6        3.11536  -0.00000  -0.00118   0.00019  -0.00099   3.11436
    D7        3.13863  -0.00001  -0.00128   0.00023  -0.00106   3.13757
    D8       -0.00853  -0.00001  -0.00122   0.00016  -0.00106  -0.00958
    D9       -2.45258  -0.00001  -0.00020  -0.00029  -0.00049  -2.45307
   D10        1.69210  -0.00000  -0.00029  -0.00016  -0.00045   1.69166
   D11       -0.37601   0.00000  -0.00019  -0.00016  -0.00035  -0.37636
   D12        1.17061  -0.00002  -0.00096  -0.00054  -0.00150   1.16911
   D13       -0.96790  -0.00001  -0.00105  -0.00041  -0.00146  -0.96935
   D14       -3.03601  -0.00001  -0.00095  -0.00041  -0.00136  -3.03737
   D15       -3.13971  -0.00000   0.00003  -0.00002   0.00001  -3.13970
   D16        0.00759  -0.00000  -0.00004   0.00005   0.00001   0.00760
   D17        3.13884  -0.00000  -0.00004  -0.00002  -0.00006   3.13879
   D18       -0.00228  -0.00000  -0.00002  -0.00002  -0.00003  -0.00232
   D19       -3.14134   0.00000   0.00004  -0.00000   0.00003  -3.14130
   D20        0.00018   0.00000   0.00004   0.00000   0.00004   0.00022
   D21       -0.00019   0.00000   0.00001  -0.00001   0.00001  -0.00019
   D22        3.14133   0.00000   0.00002  -0.00000   0.00001   3.14134
   D23        3.14143   0.00000  -0.00001   0.00001  -0.00000   3.14143
   D24       -0.00026   0.00000  -0.00001   0.00001  -0.00000  -0.00026
   D25       -0.00009   0.00000  -0.00001   0.00001  -0.00001  -0.00010
   D26        3.14140  -0.00000  -0.00001   0.00000  -0.00001   3.14140
   D27       -3.14144  -0.00000   0.00002  -0.00001   0.00001  -3.14144
   D28        0.00037   0.00000   0.00002  -0.00001   0.00001   0.00038
   D29        0.00008   0.00000   0.00002  -0.00001   0.00001   0.00009
   D30       -3.14129   0.00000   0.00002  -0.00000   0.00001  -3.14127
   D31        0.00002  -0.00000  -0.00000  -0.00000  -0.00000   0.00001
   D32        3.14146  -0.00000   0.00000  -0.00000  -0.00000   3.14145
   D33       -3.14148   0.00000  -0.00000   0.00000   0.00000  -3.14148
   D34       -0.00004   0.00000   0.00000  -0.00000   0.00000  -0.00004
   D35        0.00007  -0.00000   0.00001  -0.00000   0.00000   0.00007
   D36        3.14138  -0.00000   0.00000  -0.00000  -0.00000   3.14138
   D37       -3.14137  -0.00000   0.00001  -0.00000   0.00000  -3.14137
   D38       -0.00006  -0.00000  -0.00000   0.00000  -0.00000  -0.00006
   D39       -0.00008   0.00000  -0.00000   0.00000   0.00000  -0.00008
   D40        3.14135  -0.00000  -0.00001   0.00000  -0.00001   3.14134
   D41       -3.14139   0.00000   0.00001   0.00000   0.00001  -3.14138
   D42        0.00004  -0.00000  -0.00000  -0.00000  -0.00000   0.00003
   D43        0.00000  -0.00000  -0.00001   0.00000  -0.00001  -0.00001
   D44        3.14136  -0.00000  -0.00001  -0.00000  -0.00001   3.14135
   D45       -3.14143   0.00000  -0.00001   0.00001   0.00000  -3.14143
   D46       -0.00007   0.00000  -0.00001   0.00000  -0.00000  -0.00007
         Item               Value     Threshold  Converged?
 Maximum Force            0.000061     0.000450     YES
 RMS     Force            0.000014     0.000300     YES
 Maximum Displacement     0.003653     0.001800     NO 
 RMS     Displacement     0.000765     0.001200     YES
 Predicted change in Energy=-6.967291D-08
 GradGradGradGradGradGradGradGradGradGradGradGradGradGradGradGradGradGrad

                          Input orientation:                          
 ---------------------------------------------------------------------
 Center     Atomic      Atomic             Coordinates (Angstroms)
 Number     Number       Type             X           Y           Z
 ---------------------------------------------------------------------
      1          8           0        2.874028    1.430313    0.009273
      2          6           0        2.900286    0.206128   -0.041212
      3          7           0        4.142000   -0.459736   -0.084729
      4          6           0        5.354918    0.248344    0.197505
      5          6           0        1.771435   -0.697894   -0.084905
      6          7           0        0.530739   -0.253930   -0.049107
      7          6           0       -0.526467   -1.026407   -0.083646
      8          6           0       -1.862863   -0.487836   -0.038230
      9          6           0       -3.000809   -1.328137   -0.075578
     10          6           0       -4.291656   -0.810481   -0.031670
     11          6           0       -4.508016    0.566811    0.051368
     12          6           0       -3.391486    1.414736    0.089280
     13          6           0       -2.101566    0.908251    0.046040
     14          1           0        4.116762   -1.452777    0.101114
     15          1           0        6.177936   -0.058844   -0.470509
     16          1           0        5.706687    0.133764    1.242130
     17          1           0        5.142999    1.312638    0.033157
     18          1           0        1.978777   -1.783218   -0.155294
     19          1           0       -0.426450   -2.127380   -0.148939
     20          1           0       -2.850669   -2.409714   -0.140690
     21          1           0       -5.145061   -1.494006   -0.062940
     22          1           0       -5.520760    0.973008    0.085622
     23          1           0       -3.537637    2.496753    0.154025
     24          1           0       -1.227478    1.561023    0.074847
 ---------------------------------------------------------------------
                    Distance matrix (angstroms):
                    1          2          3          4          5
     1  O    0.000000
     2  C    1.225507   0.000000
     3  N    2.277910   1.409653   0.000000
     4  C    2.754505   2.466573   1.432551   0.000000
     5  C    2.398717   1.446883   2.382498   3.717051   0.000000
     6  N    2.886362   2.413808   3.617296   4.856521   1.318223
     7  C    4.196126   3.641920   4.702733   6.024510   2.321266
     8  C    5.110743   4.813439   6.005109   7.259056   3.640663
     9  C    6.490759   6.097383   7.195410   8.507528   4.813689
    10  C    7.507986   7.263444   8.441113   9.707214   6.064369
    11  C    7.432494   7.417655   8.711779   9.869156   6.406992
    12  C    6.266043   6.408132   7.765135   8.824498   5.581155
    13  C    5.003043   5.051645   6.393012   7.487160   4.194876
    14  H    3.140865   2.062046   1.010596   2.106212   2.470832
    15  H    3.655625   3.316247   2.110587   1.103615   4.469266
    16  H    3.350363   3.086759   2.135660   1.108202   4.235432
    17  H    2.272147   2.501931   2.038923   1.097562   3.927292
    18  H    3.339961   2.195380   2.536951   3.956013   1.107193
    19  H    4.855447   4.064977   4.863732   6.260056   2.622638
    20  H    6.894958   6.318703   7.259681   8.631993   4.929227
    21  H    8.535962   8.223050   9.344501  10.646745   6.962197
    22  H    8.407581   8.456844   9.769887  10.900368   7.483120
    23  H    6.501361   6.836076   8.232536   9.172500   6.200734
    24  H    4.104111   4.345992   5.739357   6.713129   3.757885
                    6          7          8          9         10
     6  N    0.000000
     7  C    1.309808   0.000000
     8  C    2.405029   1.441553   0.000000
     9  C    3.691402   2.492684   1.415069   0.000000
    10  C    4.854435   3.771733   2.450138   1.391467   0.000000
    11  C    5.106149   4.290606   2.849059   2.424586   1.396653
    12  C    4.264674   3.767945   2.443916   2.775457   2.403440
    13  C    2.879019   2.498130   1.418852   2.413475   2.785062
    14  H    3.784093   4.666423   6.058585   7.120855   8.433959
    15  H    5.666258   6.784900   8.063831   9.274505  10.505708
    16  H    5.348648   6.477336   7.702194   8.927149  10.123291
    17  H    4.871740   6.134136   7.233873   8.561958   9.670809
    18  H    2.108746   2.618042   4.055850   5.000973   6.346639
    19  H    2.106179   1.107433   2.182577   2.696571   4.085069
    20  H    4.011198   2.705311   2.163301   1.093888   2.155430
    21  H    5.809706   4.642251   3.433047   2.150695   1.093840
    22  H    6.176096   5.382311   3.940763   3.416344   2.169168
    23  H    4.915201   4.640720   3.427769   3.869197   3.397179
    24  H    2.529969   2.685391   2.148098   3.393313   3.876153
                   11         12         13         14         15
    11  C    0.000000
    12  C    1.402517   0.000000
    13  C    2.430557   1.386467   0.000000
    14  H    8.858217   8.037198   6.651698   0.000000
    15  H   10.716967   9.698383   8.351782   2.553085   0.000000
    16  H   10.292987   9.259951   7.937208   2.519303   1.786703
    17  H    9.679808   8.535280   7.255855   2.950475   1.790457
    18  H    6.902451   6.255114   4.892212   2.178513   4.550360
    19  H    4.894688   4.625448   3.472619   4.599825   6.928215
    20  H    3.412241   3.869340   3.406599   7.036995   9.335474
    21  H    2.160060   3.399850   3.878863   9.263368  11.420862
    22  H    1.091705   2.174614   3.420036   9.938134  11.757274
    23  H    2.162603   1.093761   2.144132   8.613444  10.065460
    24  H    3.427964   2.168995   1.091317   6.135518   7.600101
                   16         17         18         19         20
    16  H    0.000000
    17  H    1.780198   0.000000
    18  H    4.418702   4.430818   0.000000
    19  H    6.683054   6.548713   2.429733   0.000000
    20  H    9.033814   8.819573   4.869934   2.440618   0.000000
    21  H   11.050488  10.664459   7.130304   4.761707   2.471600
    22  H   11.318012  10.669295   7.993615   5.968201   4.315486
    23  H    9.603396   8.761860   6.988895   5.581566   4.963085
    24  H    7.175113   6.375454   4.638640   3.781010   4.295109
                   21         22         23         24
    21  H    0.000000
    22  H    2.499876   0.000000
    23  H    4.307789   2.501850   0.000000
    24  H    4.969874   4.333376   2.493731   0.000000
 Stoichiometry    C10H11N2O(1-)
 Framework group  C1[X(C10H11N2O)]
 Deg. of freedom    66
 Full point group                 C1      NOp   1
 Largest Abelian subgroup         C1      NOp   1
 Largest concise Abelian subgroup C1      NOp   1
                         Standard orientation:                         
 ---------------------------------------------------------------------
 Center     Atomic      Atomic             Coordinates (Angstroms)
 Number     Number       Type             X           Y           Z
 ---------------------------------------------------------------------
      1          8           0        2.877591    1.399723   -0.088256
      2          6           0        2.880459    0.174395   -0.067454
      3          7           0        4.109125   -0.516545   -0.077512
      4          6           0        5.336717    0.183378    0.157710
      5          6           0        1.734521   -0.708838   -0.053494
      6          7           0        0.502642   -0.239850   -0.038220
      7          6           0       -0.569131   -0.992626   -0.023098
      8          6           0       -1.894855   -0.426815   -0.003317
      9          6           0       -3.048647   -1.245905    0.013305
     10          6           0       -4.329233   -0.701929    0.032600
     11          6           0       -4.519098    0.681754    0.036204
     12          6           0       -3.386570    1.508896    0.019794
     13          6           0       -2.106697    0.976127    0.000519
     14          1           0        4.066162   -1.496429    0.165974
     15          1           0        6.150130   -0.177858   -0.494850
     16          1           0        5.691960    0.123029    1.205695
     17          1           0        5.144033    1.240177   -0.067436
     18          1           0        1.920951   -1.800193   -0.061440
     19          1           0       -0.490273   -2.097247   -0.024576
     20          1           0       -2.919309   -2.332116    0.010659
     21          1           0       -5.195548   -1.369636    0.044918
     22          1           0       -5.523791    1.108588    0.051144
     23          1           0       -3.511914    2.595449    0.022032
     24          1           0       -1.220297    1.612599   -0.012556
 ---------------------------------------------------------------------
 Rotational constants (GHZ):           3.2092065           0.2702426           0.2498453
 Standard basis: def2SVP (5D, 7F)
 There are   250 symmetry adapted cartesian basis functions of A   symmetry.
 There are   237 symmetry adapted basis functions of A   symmetry.
   237 basis functions,   402 primitive gaussians,   250 cartesian basis functions
    47 alpha electrons       47 beta electrons
       nuclear repulsion energy       687.3513886892 Hartrees.
 NAtoms=   24 NActive=   24 NUniq=   24 SFac= 1.00D+00 NAtFMM=   60 NAOKFM=F Big=F
 Integral buffers will be    131072 words long.
 Raffenetti 2 integral format.
 Two-electron integral symmetry is turned on.
 Nuclear repulsion after empirical dispersion term =      687.3505955157 Hartrees.
 One-electron integrals computed using PRISM.
   1 Symmetry operations used in ECPInt.
 ECPInt:  NShTT=    6216 NPrTT=   22568 LenC2=    5549 LenP2D=   14676.
 LDataN:  DoStor=T MaxTD1= 4 Len=   56
 NBasis=   237 RedAO= T EigKep=  3.05D-04  NBF=   237
 NBsUse=   237 1.00D-06 EigRej= -1.00D+00 NBFU=   237
 Initial guess from the checkpoint file:  "vsa3_crest_conformers-3.chk"
 B after Tr=    -0.000000   -0.000000    0.000000
         Rot=    1.000000    0.000037    0.000000    0.000003 Ang=   0.00 deg.
 Requested convergence on RMS density matrix=1.00D-08 within 128 cycles.
 Requested convergence on MAX density matrix=1.00D-06.
 Requested convergence on             energy=1.00D-06.
 No special actions if energy rises.
 SCF Done:  E(RM062X) =  -571.769035826     A.U. after    8 cycles
            NFock=  8  Conv=0.48D-08     -V/T= 2.0101
   1 Symmetry operations used in ECPInt.
 ECPInt:  NShTT=    6216 NPrTT=   22568 LenC2=    5549 LenP2D=   14676.
 LDataN:  DoStor=T MaxTD1= 5 Len=  102
 Calling FoFJK, ICntrl=      2127 FMM=F ISym2X=0 I1Cent= 0 IOpClX= 0 NMat=1 NMatS=1 NMatT=0.
 ***** Axes restored to original set *****
 -------------------------------------------------------------------
 Center     Atomic                   Forces (Hartrees/Bohr)
 Number     Number              X              Y              Z
 -------------------------------------------------------------------
      1        8          -0.000008004   -0.000009708    0.000000947
      2        6           0.000066888    0.000014145   -0.000001000
      3        7          -0.000067897    0.000006022    0.000017836
      4        6           0.000024641    0.000023236   -0.000006967
      5        6           0.000009604   -0.000033778    0.000000368
      6        7          -0.000035121    0.000020071   -0.000000240
      7        6           0.000052156   -0.000026022   -0.000002517
      8        6          -0.000038515    0.000021862    0.000001079
      9        6          -0.000005551    0.000009437   -0.000000023
     10        6           0.000014479   -0.000004391   -0.000000847
     11        6           0.000004241    0.000009084    0.000000865
     12        6          -0.000007503   -0.000012966    0.000000085
     13        6           0.000003599   -0.000011380    0.000000019
     14        1           0.000011123   -0.000000163   -0.000020002
     15        1          -0.000001502   -0.000011440    0.000005120
     16        1          -0.000002421    0.000001156    0.000005639
     17        1          -0.000005372   -0.000000116   -0.000001026
     18        1          -0.000007401    0.000002294    0.000000426
     19        1          -0.000008121    0.000006142   -0.000000610
     20        1           0.000003385   -0.000005366   -0.000001648
     21        1          -0.000004858   -0.000003477   -0.000000991
     22        1          -0.000003024   -0.000002143    0.000000545
     23        1           0.000001376    0.000005751    0.000001799
     24        1           0.000003799    0.000001750    0.000001142
 -------------------------------------------------------------------
 Cartesian Forces:  Max     0.000067897 RMS     0.000017125

 GradGradGradGradGradGradGradGradGradGradGradGradGradGradGradGradGradGrad
 Berny optimization.
 Using GEDIIS/GDIIS optimizer.
 FormGI is forming the generalized inverse of G from B-inverse, IUseBI=4.
 Internal  Forces:  Max     0.000043363 RMS     0.000007882
 Search for a local minimum.
 Step number   8 out of a maximum of  117
 All quantities printed in internal units (Hartrees-Bohrs-Radians)
 Mixed Optimization -- En-DIIS/RFO-DIIS
 Swapping is turned off.
 Update second derivatives using D2CorX and points    1    2    3    4    5
                                                      6    7    8
 DE= -8.37D-08 DEPred=-6.97D-08 R= 1.20D+00
 Trust test= 1.20D+00 RLast= 3.65D-03 DXMaxT set to 4.50D-01
 ITU=  0  0  1  1  1  0  1  0
     Eigenvalues ---    0.00444   0.01477   0.01776   0.01785   0.01901
     Eigenvalues ---    0.01943   0.02050   0.02176   0.02202   0.02209
     Eigenvalues ---    0.02209   0.02237   0.02276   0.02287   0.02322
     Eigenvalues ---    0.02332   0.02777   0.03004   0.05745   0.07138
     Eigenvalues ---    0.07848   0.14057   0.15487   0.15827   0.15968
     Eigenvalues ---    0.16000   0.16000   0.16001   0.16007   0.16010
     Eigenvalues ---    0.16044   0.16153   0.21051   0.22003   0.22056
     Eigenvalues ---    0.22365   0.22775   0.23686   0.24826   0.25041
     Eigenvalues ---    0.26469   0.31847   0.32637   0.32946   0.33992
     Eigenvalues ---    0.34604   0.35222   0.35558   0.35642   0.35763
     Eigenvalues ---    0.35923   0.36826   0.38046   0.41563   0.42355
     Eigenvalues ---    0.42742   0.43747   0.46079   0.46141   0.46896
     Eigenvalues ---    0.47928   0.48276   0.53691   0.62905   0.70390
     Eigenvalues ---    0.81453
 En-DIIS/RFO-DIIS/Sim-DIIS IScMMF=       -3 using points:     8    7    6    5    4    3
 RFO step:  Lambda=-5.83558767D-08.
 DIIS inversion failure, remove point   6.
 DIIS inversion failure, remove point   5.
 DIIS inversion failure, remove point   4.
 DIIS inversion failure, remove point   3.
 RFO-DIIS uses    2 points instead of    6
 DidBck=F Rises=F RFO-DIIS coefs:    1.68939   -0.68939    0.00000    0.00000    0.00000
                  RFO-DIIS coefs:    0.00000
 Iteration  1 RMS(Cart)=  0.00037915 RMS(Int)=  0.00000018
 Iteration  2 RMS(Cart)=  0.00000019 RMS(Int)=  0.00000004
 Variable       Old X    -DE/DX   Delta X   Delta X   Delta X     New X
                                 (Linear)    (Quad)   (Total)
    R1        2.31587  -0.00001  -0.00003   0.00002  -0.00001   2.31586
    R2        2.66386  -0.00004  -0.00005  -0.00009  -0.00014   2.66371
    R3        2.73421   0.00003   0.00008   0.00000   0.00009   2.73430
    R4        2.70713   0.00002  -0.00001   0.00004   0.00003   2.70716
    R5        1.90975  -0.00000  -0.00001  -0.00000  -0.00001   1.90974
    R6        2.08553  -0.00000   0.00003  -0.00003   0.00000   2.08553
    R7        2.09420   0.00000   0.00004  -0.00001   0.00003   2.09422
    R8        2.07409   0.00000   0.00002  -0.00002   0.00001   2.07410
    R9        2.49108   0.00002  -0.00000   0.00003   0.00003   2.49111
   R10        2.09229  -0.00000   0.00000  -0.00001  -0.00000   2.09229
   R11        2.47518  -0.00001   0.00004  -0.00003   0.00001   2.47519
   R12        2.72414   0.00003   0.00004   0.00004   0.00007   2.72421
   R13        2.09275  -0.00001  -0.00002  -0.00000  -0.00002   2.09272
   R14        2.67409  -0.00001   0.00001  -0.00001  -0.00000   2.67409
   R15        2.68124  -0.00001   0.00001  -0.00002  -0.00001   2.68123
   R16        2.62949  -0.00001   0.00000  -0.00001  -0.00001   2.62948
   R17        2.06715   0.00001   0.00003  -0.00001   0.00003   2.06717
   R18        2.63929   0.00000   0.00000   0.00001   0.00002   2.63931
   R19        2.06706   0.00001   0.00004  -0.00001   0.00003   2.06708
   R20        2.65037  -0.00001   0.00002  -0.00002   0.00000   2.65038
   R21        2.06302   0.00000   0.00003  -0.00001   0.00002   2.06304
   R22        2.62004   0.00000  -0.00000   0.00001   0.00001   2.62005
   R23        2.06691   0.00001   0.00004  -0.00001   0.00003   2.06694
   R24        2.06229   0.00000   0.00003  -0.00001   0.00002   2.06231
    A1        2.08518   0.00001   0.00005  -0.00002   0.00003   2.08521
    A2        2.22517  -0.00001  -0.00003  -0.00001  -0.00004   2.22513
    A3        1.97271   0.00000  -0.00002   0.00003   0.00001   1.97272
    A4        2.10163  -0.00001   0.00005  -0.00001   0.00004   2.10167
    A5        2.02248   0.00001   0.00015   0.00007   0.00022   2.02269
    A6        2.06077  -0.00000   0.00008  -0.00000   0.00008   2.06086
    A7        1.95474  -0.00001  -0.00001  -0.00006  -0.00007   1.95467
    A8        1.98599  -0.00000   0.00003  -0.00003  -0.00000   1.98598
    A9        1.86118  -0.00000   0.00003  -0.00003   0.00000   1.86118
   A10        1.88081   0.00000  -0.00003   0.00002  -0.00001   1.88081
   A11        1.89997   0.00001   0.00007   0.00006   0.00013   1.90010
   A12        1.87832   0.00000  -0.00008   0.00005  -0.00003   1.87828
   A13        2.12124  -0.00001   0.00003  -0.00006  -0.00003   2.12121
   A14        2.05814   0.00001  -0.00002   0.00007   0.00005   2.05819
   A15        2.10380  -0.00000  -0.00000  -0.00002  -0.00002   2.10378
   A16        2.16559  -0.00001  -0.00002  -0.00003  -0.00004   2.16554
   A17        2.12598  -0.00001  -0.00003  -0.00003  -0.00006   2.12592
   A18        2.11178   0.00001   0.00000   0.00007   0.00007   2.11185
   A19        2.04543  -0.00000   0.00003  -0.00003  -0.00001   2.04542
   A20        2.12095  -0.00000   0.00002  -0.00002   0.00001   2.12095
   A21        2.12403  -0.00000  -0.00000  -0.00001  -0.00001   2.12402
   A22        2.03820   0.00000  -0.00002   0.00003   0.00000   2.03821
   A23        2.12265  -0.00000   0.00001  -0.00001   0.00000   2.12265
   A24        2.06956  -0.00000  -0.00001  -0.00000  -0.00002   2.06954
   A25        2.09098   0.00000  -0.00000   0.00002   0.00002   2.09100
   A26        2.10883   0.00000   0.00001  -0.00000   0.00001   2.10884
   A27        2.08335   0.00000  -0.00001   0.00001  -0.00000   2.08335
   A28        2.09100  -0.00000   0.00000  -0.00001  -0.00001   2.09100
   A29        2.06516  -0.00000  -0.00003   0.00001  -0.00002   2.06515
   A30        2.10888  -0.00000   0.00001  -0.00002  -0.00000   2.10888
   A31        2.10914   0.00000   0.00001   0.00001   0.00002   2.10916
   A32        2.11643   0.00000   0.00002  -0.00001   0.00001   2.11644
   A33        2.08668   0.00000  -0.00000   0.00001   0.00001   2.08670
   A34        2.08008  -0.00000  -0.00002  -0.00001  -0.00002   2.08005
   A35        2.11510  -0.00000   0.00001  -0.00001  -0.00000   2.11509
   A36        2.04359  -0.00000  -0.00001   0.00000  -0.00000   2.04358
   A37        2.12450   0.00000   0.00000   0.00001   0.00001   2.12451
    D1        0.21938  -0.00000  -0.00073   0.00018  -0.00055   0.21883
    D2        2.89043   0.00000  -0.00006   0.00030   0.00024   2.89067
    D3       -2.93830   0.00000  -0.00069   0.00017  -0.00052  -2.93881
    D4       -0.26725   0.00000  -0.00002   0.00030   0.00027  -0.26698
    D5       -0.02167   0.00000  -0.00068   0.00034  -0.00034  -0.02201
    D6        3.11436   0.00000  -0.00068   0.00034  -0.00035   3.11401
    D7        3.13757   0.00000  -0.00073   0.00035  -0.00038   3.13719
    D8       -0.00958   0.00000  -0.00073   0.00034  -0.00039  -0.00997
    D9       -2.45307  -0.00000  -0.00034  -0.00023  -0.00057  -2.45364
   D10        1.69166  -0.00000  -0.00031  -0.00019  -0.00050   1.69116
   D11       -0.37636   0.00000  -0.00024  -0.00021  -0.00046  -0.37682
   D12        1.16911  -0.00001  -0.00103  -0.00037  -0.00141   1.16770
   D13       -0.96935  -0.00001  -0.00101  -0.00033  -0.00134  -0.97069
   D14       -3.03737  -0.00001  -0.00094  -0.00036  -0.00130  -3.03867
   D15       -3.13970   0.00000   0.00001   0.00002   0.00003  -3.13967
   D16        0.00760   0.00000   0.00001   0.00003   0.00004   0.00764
   D17        3.13879   0.00000  -0.00004   0.00005   0.00001   3.13879
   D18       -0.00232   0.00000  -0.00002   0.00004   0.00002  -0.00230
   D19       -3.14130   0.00000   0.00002   0.00000   0.00002  -3.14128
   D20        0.00022   0.00000   0.00003  -0.00001   0.00002   0.00024
   D21       -0.00019   0.00000   0.00001   0.00001   0.00001  -0.00017
   D22        3.14134   0.00000   0.00001   0.00000   0.00001   3.14135
   D23        3.14143   0.00000  -0.00000  -0.00000  -0.00000   3.14143
   D24       -0.00026   0.00000  -0.00000   0.00000  -0.00000  -0.00026
   D25       -0.00010   0.00000  -0.00000   0.00000   0.00000  -0.00010
   D26        3.14140   0.00000  -0.00001   0.00001   0.00000   3.14140
   D27       -3.14144  -0.00000   0.00000  -0.00000   0.00000  -3.14144
   D28        0.00038  -0.00000   0.00001  -0.00000   0.00000   0.00039
   D29        0.00009  -0.00000   0.00001  -0.00001  -0.00000   0.00009
   D30       -3.14127  -0.00000   0.00001  -0.00001   0.00000  -3.14127
   D31        0.00001   0.00000  -0.00000   0.00000   0.00000   0.00001
   D32        3.14145   0.00000  -0.00000   0.00000   0.00000   3.14146
   D33       -3.14148  -0.00000   0.00000  -0.00000  -0.00000  -3.14148
   D34       -0.00004  -0.00000   0.00000  -0.00000  -0.00000  -0.00004
   D35        0.00007  -0.00000   0.00000  -0.00000   0.00000   0.00007
   D36        3.14138  -0.00000  -0.00000   0.00000   0.00000   3.14138
   D37       -3.14137  -0.00000   0.00000  -0.00000   0.00000  -3.14137
   D38       -0.00006   0.00000  -0.00000   0.00000  -0.00000  -0.00006
   D39       -0.00008  -0.00000   0.00000  -0.00000  -0.00000  -0.00008
   D40        3.14134   0.00000  -0.00001   0.00000  -0.00000   3.14134
   D41       -3.14138  -0.00000   0.00000  -0.00001  -0.00000  -3.14139
   D42        0.00003  -0.00000  -0.00000   0.00000  -0.00000   0.00003
   D43       -0.00001   0.00000  -0.00001   0.00001   0.00000  -0.00001
   D44        3.14135   0.00000  -0.00001   0.00001  -0.00000   3.14135
   D45       -3.14143   0.00000   0.00000   0.00000   0.00000  -3.14143
   D46       -0.00007   0.00000  -0.00000   0.00000  -0.00000  -0.00007
         Item               Value     Threshold  Converged?
 Maximum Force            0.000043     0.000450     YES
 RMS     Force            0.000008     0.000300     YES
 Maximum Displacement     0.002156     0.001800     NO 
 RMS     Displacement     0.000379     0.001200     YES
 Predicted change in Energy=-2.917990D-08
 GradGradGradGradGradGradGradGradGradGradGradGradGradGradGradGradGradGrad

                          Input orientation:                          
 ---------------------------------------------------------------------
 Center     Atomic      Atomic             Coordinates (Angstroms)
 Number     Number       Type             X           Y           Z
 ---------------------------------------------------------------------
      1          8           0        2.873980    1.430256    0.009193
      2          6           0        2.900301    0.206071   -0.041163
      3          7           0        4.141964   -0.459750   -0.084295
      4          6           0        5.354911    0.248482    0.197514
      5          6           0        1.771424   -0.697986   -0.085010
      6          7           0        0.530724   -0.254003   -0.049140
      7          6           0       -0.526465   -1.026506   -0.083780
      8          6           0       -1.862880   -0.487884   -0.038283
      9          6           0       -3.000859   -1.328136   -0.075707
     10          6           0       -4.291682   -0.810437   -0.031719
     11          6           0       -4.508000    0.566861    0.051478
     12          6           0       -3.391426    1.414728    0.089466
     13          6           0       -2.101523    0.908197    0.046148
     14          1           0        4.116876   -1.452816    0.101401
     15          1           0        6.178020   -0.059571   -0.469990
     16          1           0        5.706424    0.134905    1.242350
     17          1           0        5.143140    1.312642    0.032093
     18          1           0        1.978726   -1.783304   -0.155586
     19          1           0       -0.426492   -2.127462   -0.149208
     20          1           0       -2.850741   -2.409722   -0.140943
     21          1           0       -5.145125   -1.493936   -0.063051
     22          1           0       -5.520739    0.973086    0.085795
     23          1           0       -3.537513    2.496762    0.154334
     24          1           0       -1.227395    1.560934    0.075012
 ---------------------------------------------------------------------
                    Distance matrix (angstroms):
                    1          2          3          4          5
     1  O    0.000000
     2  C    1.225502   0.000000
     3  N    2.277860   1.409576   0.000000
     4  C    2.754464   2.466551   1.432567   0.000000
     5  C    2.398732   1.446930   2.382481   3.717122   0.000000
     6  N    2.886343   2.413841   3.617268   4.856553   1.318236
     7  C    4.196111   3.641949   4.702706   6.024558   2.321255
     8  C    5.110710   4.813469   6.005087   7.259087   3.640672
     9  C    6.490737   6.097432   7.195422   8.507600   4.813717
    10  C    7.507934   7.263470   8.441098   9.707245   6.064383
    11  C    7.432419   7.417660   8.711730   9.869128   6.406999
    12  C    6.265939   6.408100   7.765039   8.824410   5.581132
    13  C    5.002953   5.051618   6.392920   7.487091   4.194848
    14  H    3.140923   2.062107   1.010590   2.106272   2.470964
    15  H    3.655938   3.316308   2.110552   1.103616   4.469214
    16  H    3.349828   3.086550   2.135681   1.108216   4.235541
    17  H    2.272321   2.502037   2.038939   1.097565   3.927442
    18  H    3.339999   2.195451   2.537021   3.956192   1.107190
    19  H    4.855466   4.065046   4.863771   6.260187   2.622662
    20  H    6.894954   6.318767   7.259719   8.632109   4.929257
    21  H    8.535933   8.223100   9.344518  10.646814   6.962232
    22  H    8.407507   8.456853   9.769841  10.900335   7.483135
    23  H    6.501211   6.836003   8.232392   9.172340   6.200687
    24  H    4.103984   4.345921   5.739213   6.712994   3.757824
                    6          7          8          9         10
     6  N    0.000000
     7  C    1.309813   0.000000
     8  C    2.405027   1.441592   0.000000
     9  C    3.691415   2.492724   1.415069   0.000000
    10  C    4.854432   3.771770   2.450135   1.391463   0.000000
    11  C    5.106141   4.290656   2.849070   2.424595   1.396662
    12  C    4.264637   3.767975   2.443912   2.775451   2.403436
    13  C    2.878977   2.498151   1.418845   2.413470   2.785060
    14  H    3.784218   4.666546   6.058720   7.121030   8.434110
    15  H    5.666293   6.784854   8.063864   9.274511  10.505738
    16  H    5.348557   6.477376   7.702094   8.927180  10.123193
    17  H    4.871895   6.134285   7.234028   8.562128   9.670956
    18  H    2.108745   2.617992   4.055837   5.000983   6.346639
    19  H    2.106211   1.107420   2.182597   2.696608   4.085101
    20  H    4.011216   2.705330   2.163300   1.093901   2.155447
    21  H    5.809723   4.642298   3.433057   2.150703   1.093854
    22  H    6.176096   5.382369   3.940782   3.416357   2.169181
    23  H    4.915145   4.640746   3.427770   3.869206   3.397197
    24  H    2.529899   2.685397   2.148100   3.393319   3.876164
                   11         12         13         14         15
    11  C    0.000000
    12  C    1.402518   0.000000
    13  C    2.430570   1.386471   0.000000
    14  H    8.858334   8.037261   6.651761   0.000000
    15  H   10.717060   9.698498   8.351875   2.552633   0.000000
    16  H   10.292677   9.259480   7.936807   2.519778   1.786710
    17  H    9.679930   8.535369   7.255957   2.950556   1.790540
    18  H    6.902446   6.255078   4.892167   2.178750   4.550184
    19  H    4.894727   4.625463   3.472623   4.600016   6.928106
    20  H    3.412269   3.869347   3.406598   7.037193   9.335417
    21  H    2.160076   3.399860   3.878876   9.263552  11.420885
    22  H    1.091713   2.174635   3.420062   9.938253  11.757392
    23  H    2.162623   1.093776   2.144134   8.613457  10.065595
    24  H    3.427988   2.169013   1.091329   6.135521   7.600213
                   16         17         18         19         20
    16  H    0.000000
    17  H    1.780190   0.000000
    18  H    4.419217   4.430984   0.000000
    19  H    6.683366   6.548891   2.429724   0.000000
    20  H    9.034029   8.819754   4.869945   2.440640   0.000000
    21  H   11.050488  10.664629   7.130326   4.761751   2.471625
    22  H   11.317657  10.669419   7.993618   5.968247   4.315517
    23  H    9.602734   8.761895   6.988841   5.581580   4.963106
    24  H    7.174544   6.375516   4.638568   3.781003   4.295113
                   21         22         23         24
    21  H    0.000000
    22  H    2.499887   0.000000
    23  H    4.307823   2.501894   0.000000
    24  H    4.969899   4.333415   2.493734   0.000000
 Stoichiometry    C10H11N2O(1-)
 Framework group  C1[X(C10H11N2O)]
 Deg. of freedom    66
 Full point group                 C1      NOp   1
 Largest Abelian subgroup         C1      NOp   1
 Largest concise Abelian subgroup C1      NOp   1
                         Standard orientation:                         
 ---------------------------------------------------------------------
 Center     Atomic      Atomic             Coordinates (Angstroms)
 Number     Number       Type             X           Y           Z
 ---------------------------------------------------------------------
      1          8           0        2.877551    1.399661   -0.088466
      2          6           0        2.880479    0.174343   -0.067450
      3          7           0        4.109096   -0.516537   -0.077085
      4          6           0        5.336720    0.183525    0.157650
      5          6           0        1.734512   -0.708930   -0.053575
      6          7           0        0.502629   -0.239913   -0.038256
      7          6           0       -0.569130   -0.992717   -0.023174
      8          6           0       -1.894868   -0.426845   -0.003347
      9          6           0       -3.048696   -1.245883    0.013259
     10          6           0       -4.329255   -0.701856    0.032601
     11          6           0       -4.519072    0.681843    0.036268
     12          6           0       -3.386499    1.508926    0.019874
     13          6           0       -2.106645    0.976101    0.000554
     14          1           0        4.066278   -1.496441    0.166323
     15          1           0        6.150205   -0.178594   -0.494332
     16          1           0        5.691732    0.124266    1.205790
     17          1           0        5.144177    1.240110   -0.068632
     18          1           0        1.920896   -1.800290   -0.061633
     19          1           0       -0.490320   -2.097328   -0.024713
     20          1           0       -2.919384   -2.332111    0.010563
     21          1           0       -5.195609   -1.369536    0.044905
     22          1           0       -5.523759    1.108712    0.051245
     23          1           0       -3.511774    2.595501    0.022159
     24          1           0       -1.220204    1.612537   -0.012512
 ---------------------------------------------------------------------
 Rotational constants (GHZ):           3.2091453           0.2702441           0.2498462
 Standard basis: def2SVP (5D, 7F)
 There are   250 symmetry adapted cartesian basis functions of A   symmetry.
 There are   237 symmetry adapted basis functions of A   symmetry.
   237 basis functions,   402 primitive gaussians,   250 cartesian basis functions
    47 alpha electrons       47 beta electrons
       nuclear repulsion energy       687.3508090995 Hartrees.
 NAtoms=   24 NActive=   24 NUniq=   24 SFac= 1.00D+00 NAtFMM=   60 NAOKFM=F Big=F
 Integral buffers will be    131072 words long.
 Raffenetti 2 integral format.
 Two-electron integral symmetry is turned on.
 Nuclear repulsion after empirical dispersion term =      687.3500159247 Hartrees.
 One-electron integrals computed using PRISM.
   1 Symmetry operations used in ECPInt.
 ECPInt:  NShTT=    6216 NPrTT=   22568 LenC2=    5549 LenP2D=   14676.
 LDataN:  DoStor=T MaxTD1= 4 Len=   56
 NBasis=   237 RedAO= T EigKep=  3.05D-04  NBF=   237
 NBsUse=   237 1.00D-06 EigRej= -1.00D+00 NBFU=   237
 Initial guess from the checkpoint file:  "vsa3_crest_conformers-3.chk"
 B after Tr=    -0.000000    0.000000   -0.000000
         Rot=    1.000000    0.000023    0.000000    0.000002 Ang=   0.00 deg.
 Requested convergence on RMS density matrix=1.00D-08 within 128 cycles.
 Requested convergence on MAX density matrix=1.00D-06.
 Requested convergence on             energy=1.00D-06.
 No special actions if energy rises.
 SCF Done:  E(RM062X) =  -571.769035863     A.U. after    7 cycles
            NFock=  7  Conv=0.64D-08     -V/T= 2.0101
   1 Symmetry operations used in ECPInt.
 ECPInt:  NShTT=    6216 NPrTT=   22568 LenC2=    5549 LenP2D=   14676.
 LDataN:  DoStor=T MaxTD1= 5 Len=  102
 Calling FoFJK, ICntrl=      2127 FMM=F ISym2X=0 I1Cent= 0 IOpClX= 0 NMat=1 NMatS=1 NMatT=0.
 ***** Axes restored to original set *****
 -------------------------------------------------------------------
 Center     Atomic                   Forces (Hartrees/Bohr)
 Number     Number              X              Y              Z
 -------------------------------------------------------------------
      1        8          -0.000002087    0.000003430    0.000002069
      2        6           0.000013387   -0.000012087    0.000001876
      3        7          -0.000020624    0.000009936    0.000006626
      4        6           0.000012613    0.000008808   -0.000000220
      5        6           0.000010529   -0.000008105    0.000001354
      6        7          -0.000014498    0.000001288   -0.000004108
      7        6           0.000015726    0.000002118   -0.000000780
      8        6          -0.000013007    0.000007441    0.000000713
      9        6           0.000000023   -0.000000250   -0.000000853
     10        6           0.000001932   -0.000004816   -0.000000776
     11        6           0.000005107    0.000003912    0.000000491
     12        6          -0.000007163   -0.000001956    0.000000933
     13        6           0.000005523   -0.000003771    0.000000121
     14        1           0.000004091    0.000000644   -0.000014829
     15        1          -0.000005228   -0.000002993    0.000005340
     16        1          -0.000003314    0.000002041   -0.000000312
     17        1           0.000000269   -0.000003765   -0.000001703
     18        1          -0.000002533    0.000002573    0.000004659
     19        1          -0.000003530    0.000000508   -0.000001397
     20        1          -0.000000005    0.000002903   -0.000001144
     21        1           0.000002473    0.000002244   -0.000000708
     22        1           0.000003043   -0.000003373    0.000000355
     23        1           0.000000898   -0.000003994    0.000001281
     24        1          -0.000003624   -0.000002735    0.000001012
 -------------------------------------------------------------------
 Cartesian Forces:  Max     0.000020624 RMS     0.000006095

 GradGradGradGradGradGradGradGradGradGradGradGradGradGradGradGradGradGrad
 Berny optimization.
 Using GEDIIS/GDIIS optimizer.
 FormGI is forming the generalized inverse of G from B-inverse, IUseBI=4.
 Internal  Forces:  Max     0.000015510 RMS     0.000003391
 Search for a local minimum.
 Step number   9 out of a maximum of  117
 All quantities printed in internal units (Hartrees-Bohrs-Radians)
 Mixed Optimization -- En-DIIS/RFO-DIIS
 Swapping is turned off.
 Update second derivatives using D2CorX and points    1    2    3    4    5
                                                      6    7    8    9
 DE= -3.69D-08 DEPred=-2.92D-08 R= 1.26D+00
 Trust test= 1.26D+00 RLast= 2.76D-03 DXMaxT set to 4.50D-01
 ITU=  0  0  0  1  1  1  0  1  0
     Eigenvalues ---    0.00315   0.01483   0.01667   0.01785   0.01829
     Eigenvalues ---    0.01943   0.02050   0.02176   0.02203   0.02209
     Eigenvalues ---    0.02209   0.02237   0.02276   0.02287   0.02322
     Eigenvalues ---    0.02332   0.02783   0.03006   0.05759   0.07112
     Eigenvalues ---    0.07867   0.13712   0.15374   0.15679   0.15877
     Eigenvalues ---    0.16000   0.16000   0.16002   0.16007   0.16017
     Eigenvalues ---    0.16048   0.16110   0.20867   0.22002   0.22069
     Eigenvalues ---    0.22391   0.23073   0.23573   0.24553   0.25067
     Eigenvalues ---    0.26833   0.32341   0.32695   0.33365   0.33963
     Eigenvalues ---    0.34537   0.35228   0.35560   0.35642   0.35775
     Eigenvalues ---    0.35928   0.37126   0.39048   0.41380   0.42190
     Eigenvalues ---    0.42698   0.44141   0.45978   0.46167   0.46835
     Eigenvalues ---    0.47834   0.48319   0.53035   0.62398   0.70642
     Eigenvalues ---    0.81709
 En-DIIS/RFO-DIIS/Sim-DIIS IScMMF=       -3 using points:     9    8    7    6    5    4    3
 RFO step:  Lambda=-3.30006160D-08.
 DIIS inversion failure, remove point   7.
 DIIS inversion failure, remove point   6.
 DIIS inversion failure, remove point   5.
 DIIS inversion failure, remove point   4.
 DIIS inversion failure, remove point   3.
 RFO-DIIS uses    2 points instead of    7
 DidBck=F Rises=F RFO-DIIS coefs:    1.83137   -0.83137    0.00000    0.00000    0.00000
                  RFO-DIIS coefs:    0.00000    0.00000
 Iteration  1 RMS(Cart)=  0.00023770 RMS(Int)=  0.00000007
 Iteration  2 RMS(Cart)=  0.00000008 RMS(Int)=  0.00000003
 Variable       Old X    -DE/DX   Delta X   Delta X   Delta X     New X
                                 (Linear)    (Quad)   (Total)
    R1        2.31586   0.00000  -0.00001   0.00001   0.00001   2.31587
    R2        2.66371  -0.00002  -0.00012  -0.00000  -0.00012   2.66359
    R3        2.73430   0.00000   0.00007  -0.00003   0.00004   2.73434
    R4        2.70716   0.00000   0.00003   0.00001   0.00004   2.70720
    R5        1.90974  -0.00000  -0.00001  -0.00000  -0.00001   1.90973
    R6        2.08553  -0.00001   0.00000  -0.00002  -0.00002   2.08552
    R7        2.09422  -0.00000   0.00002  -0.00001   0.00001   2.09423
    R8        2.07410  -0.00000   0.00000  -0.00001  -0.00001   2.07409
    R9        2.49111   0.00001   0.00002   0.00001   0.00003   2.49113
   R10        2.09229  -0.00000  -0.00000  -0.00001  -0.00001   2.09228
   R11        2.47519  -0.00001   0.00001  -0.00002  -0.00001   2.47518
   R12        2.72421   0.00000   0.00006  -0.00001   0.00005   2.72426
   R13        2.09272  -0.00000  -0.00002   0.00001  -0.00001   2.09271
   R14        2.67409  -0.00000  -0.00000  -0.00001  -0.00001   2.67408
   R15        2.68123  -0.00001  -0.00001  -0.00001  -0.00002   2.68120
   R16        2.62948  -0.00001  -0.00001  -0.00001  -0.00002   2.62947
   R17        2.06717  -0.00000   0.00002  -0.00001   0.00001   2.06718
   R18        2.63931  -0.00000   0.00001  -0.00001   0.00001   2.63932
   R19        2.06708  -0.00000   0.00002  -0.00002   0.00001   2.06709
   R20        2.65038  -0.00001   0.00000  -0.00002  -0.00001   2.65036
   R21        2.06304  -0.00000   0.00001  -0.00001   0.00000   2.06304
   R22        2.62005  -0.00000   0.00001  -0.00000   0.00000   2.62005
   R23        2.06694  -0.00000   0.00002  -0.00002   0.00001   2.06694
   R24        2.06231  -0.00000   0.00002  -0.00001   0.00001   2.06232
    A1        2.08521  -0.00000   0.00003  -0.00002   0.00001   2.08522
    A2        2.22513  -0.00000  -0.00003  -0.00001  -0.00005   2.22508
    A3        1.97272   0.00000   0.00001   0.00003   0.00004   1.97276
    A4        2.10167   0.00000   0.00003   0.00002   0.00005   2.10173
    A5        2.02269   0.00000   0.00018  -0.00001   0.00017   2.02286
    A6        2.06086  -0.00000   0.00007  -0.00001   0.00006   2.06092
    A7        1.95467  -0.00000  -0.00006  -0.00002  -0.00008   1.95459
    A8        1.98598  -0.00000  -0.00000  -0.00001  -0.00001   1.98597
    A9        1.86118  -0.00000   0.00000   0.00000   0.00000   1.86118
   A10        1.88081   0.00000  -0.00001   0.00001   0.00001   1.88081
   A11        1.90010   0.00000   0.00010  -0.00001   0.00009   1.90019
   A12        1.87828   0.00000  -0.00003   0.00002  -0.00001   1.87828
   A13        2.12121  -0.00001  -0.00002  -0.00001  -0.00003   2.12118
   A14        2.05819   0.00001   0.00004   0.00001   0.00005   2.05824
   A15        2.10378   0.00000  -0.00002  -0.00000  -0.00002   2.10376
   A16        2.16554   0.00000  -0.00004   0.00002  -0.00002   2.16552
   A17        2.12592  -0.00000  -0.00005   0.00001  -0.00003   2.12589
   A18        2.11185   0.00000   0.00005   0.00000   0.00006   2.11191
   A19        2.04542  -0.00000  -0.00001  -0.00002  -0.00002   2.04539
   A20        2.12095  -0.00000   0.00001  -0.00001  -0.00000   2.12095
   A21        2.12402  -0.00000  -0.00001  -0.00000  -0.00001   2.12402
   A22        2.03821   0.00000   0.00000   0.00001   0.00001   2.03822
   A23        2.12265  -0.00000   0.00000  -0.00001  -0.00000   2.12264
   A24        2.06954   0.00000  -0.00002   0.00001  -0.00001   2.06953
   A25        2.09100   0.00000   0.00001  -0.00000   0.00001   2.09101
   A26        2.10884  -0.00000   0.00001  -0.00001  -0.00000   2.10884
   A27        2.08335   0.00000  -0.00000   0.00001   0.00001   2.08336
   A28        2.09100  -0.00000  -0.00001  -0.00000  -0.00001   2.09099
   A29        2.06515   0.00000  -0.00002   0.00001  -0.00000   2.06514
   A30        2.10888  -0.00000  -0.00000  -0.00001  -0.00001   2.10886
   A31        2.10916   0.00000   0.00002  -0.00000   0.00001   2.10918
   A32        2.11644  -0.00000   0.00001  -0.00001   0.00000   2.11644
   A33        2.08670   0.00000   0.00001   0.00000   0.00001   2.08671
   A34        2.08005  -0.00000  -0.00002   0.00000  -0.00001   2.08004
   A35        2.11509  -0.00000  -0.00000  -0.00001  -0.00001   2.11509
   A36        2.04358   0.00000  -0.00000   0.00001   0.00000   2.04359
   A37        2.12451   0.00000   0.00001   0.00000   0.00001   2.12451
    D1        0.21883   0.00000  -0.00046   0.00024  -0.00022   0.21861
    D2        2.89067   0.00000   0.00020   0.00023   0.00043   2.89109
    D3       -2.93881   0.00000  -0.00043   0.00023  -0.00020  -2.93902
    D4       -0.26698   0.00000   0.00023   0.00022   0.00044  -0.26653
    D5       -0.02201   0.00000  -0.00028   0.00036   0.00008  -0.02193
    D6        3.11401   0.00000  -0.00029   0.00037   0.00008   3.11410
    D7        3.13719   0.00001  -0.00031   0.00038   0.00007   3.13726
    D8       -0.00997   0.00001  -0.00032   0.00039   0.00007  -0.00990
    D9       -2.45364  -0.00000  -0.00047  -0.00013  -0.00060  -2.45424
   D10        1.69116  -0.00000  -0.00042  -0.00013  -0.00054   1.69061
   D11       -0.37682  -0.00000  -0.00038  -0.00015  -0.00053  -0.37735
   D12        1.16770  -0.00001  -0.00117  -0.00012  -0.00129   1.16641
   D13       -0.97069  -0.00000  -0.00111  -0.00011  -0.00123  -0.97192
   D14       -3.03867  -0.00001  -0.00108  -0.00014  -0.00121  -3.03988
   D15       -3.13967  -0.00000   0.00002  -0.00004  -0.00002  -3.13969
   D16        0.00764  -0.00000   0.00003  -0.00005  -0.00002   0.00762
   D17        3.13879  -0.00000   0.00000  -0.00001  -0.00001   3.13878
   D18       -0.00230  -0.00000   0.00001  -0.00003  -0.00001  -0.00231
   D19       -3.14128  -0.00000   0.00002  -0.00002   0.00000  -3.14128
   D20        0.00024  -0.00000   0.00002  -0.00001   0.00001   0.00025
   D21       -0.00017   0.00000   0.00001  -0.00000   0.00001  -0.00017
   D22        3.14135   0.00000   0.00001   0.00000   0.00001   3.14136
   D23        3.14143   0.00000  -0.00000   0.00001   0.00001   3.14144
   D24       -0.00026   0.00000  -0.00000   0.00001   0.00001  -0.00025
   D25       -0.00010   0.00000   0.00000   0.00000   0.00000  -0.00010
   D26        3.14140   0.00000   0.00000  -0.00000   0.00000   3.14140
   D27       -3.14144  -0.00000   0.00000  -0.00001  -0.00001  -3.14144
   D28        0.00039  -0.00000   0.00000  -0.00001  -0.00001   0.00038
   D29        0.00009  -0.00000  -0.00000   0.00000   0.00000   0.00009
   D30       -3.14127  -0.00000   0.00000  -0.00000   0.00000  -3.14127
   D31        0.00001   0.00000   0.00000  -0.00000  -0.00000   0.00001
   D32        3.14146   0.00000   0.00000  -0.00000   0.00000   3.14146
   D33       -3.14148   0.00000  -0.00000   0.00000   0.00000  -3.14148
   D34       -0.00004   0.00000  -0.00000   0.00000   0.00000  -0.00004
   D35        0.00007  -0.00000   0.00000  -0.00000  -0.00000   0.00007
   D36        3.14138  -0.00000   0.00000  -0.00000  -0.00000   3.14138
   D37       -3.14137  -0.00000   0.00000  -0.00000  -0.00000  -3.14137
   D38       -0.00006  -0.00000  -0.00000  -0.00000  -0.00000  -0.00006
   D39       -0.00008   0.00000  -0.00000   0.00000   0.00000  -0.00008
   D40        3.14134   0.00000  -0.00000   0.00000  -0.00000   3.14134
   D41       -3.14139   0.00000  -0.00000   0.00000   0.00000  -3.14138
   D42        0.00003   0.00000  -0.00000   0.00000  -0.00000   0.00003
   D43       -0.00001  -0.00000   0.00000  -0.00000  -0.00000  -0.00001
   D44        3.14135   0.00000  -0.00000  -0.00000  -0.00000   3.14135
   D45       -3.14143   0.00000   0.00000  -0.00000   0.00000  -3.14142
   D46       -0.00007   0.00000  -0.00000   0.00000   0.00000  -0.00007
         Item               Value     Threshold  Converged?
 Maximum Force            0.000016     0.000450     YES
 RMS     Force            0.000003     0.000300     YES
 Maximum Displacement     0.001271     0.001800     YES
 RMS     Displacement     0.000238     0.001200     YES
 Predicted change in Energy=-1.650121D-08
 Optimization completed.
    -- Stationary point found.
                           ----------------------------
                           !   Optimized Parameters   !
                           ! (Angstroms and Degrees)  !
 --------------------------                            --------------------------
 ! Name  Definition              Value          Derivative Info.                !
 --------------------------------------------------------------------------------
 ! R1    R(1,2)                  1.2255         -DE/DX =    0.0                 !
 ! R2    R(2,3)                  1.4096         -DE/DX =    0.0                 !
 ! R3    R(2,5)                  1.4469         -DE/DX =    0.0                 !
 ! R4    R(3,4)                  1.4326         -DE/DX =    0.0                 !
 ! R5    R(3,14)                 1.0106         -DE/DX =    0.0                 !
 ! R6    R(4,15)                 1.1036         -DE/DX =    0.0                 !
 ! R7    R(4,16)                 1.1082         -DE/DX =    0.0                 !
 ! R8    R(4,17)                 1.0976         -DE/DX =    0.0                 !
 ! R9    R(5,6)                  1.3182         -DE/DX =    0.0                 !
 ! R10   R(5,18)                 1.1072         -DE/DX =    0.0                 !
 ! R11   R(6,7)                  1.3098         -DE/DX =    0.0                 !
 ! R12   R(7,8)                  1.4416         -DE/DX =    0.0                 !
 ! R13   R(7,19)                 1.1074         -DE/DX =    0.0                 !
 ! R14   R(8,9)                  1.4151         -DE/DX =    0.0                 !
 ! R15   R(8,13)                 1.4188         -DE/DX =    0.0                 !
 ! R16   R(9,10)                 1.3915         -DE/DX =    0.0                 !
 ! R17   R(9,20)                 1.0939         -DE/DX =    0.0                 !
 ! R18   R(10,11)                1.3967         -DE/DX =    0.0                 !
 ! R19   R(10,21)                1.0939         -DE/DX =    0.0                 !
 ! R20   R(11,12)                1.4025         -DE/DX =    0.0                 !
 ! R21   R(11,22)                1.0917         -DE/DX =    0.0                 !
 ! R22   R(12,13)                1.3865         -DE/DX =    0.0                 !
 ! R23   R(12,23)                1.0938         -DE/DX =    0.0                 !
 ! R24   R(13,24)                1.0913         -DE/DX =    0.0                 !
 ! A1    A(1,2,3)              119.4738         -DE/DX =    0.0                 !
 ! A2    A(1,2,5)              127.4903         -DE/DX =    0.0                 !
 ! A3    A(3,2,5)              113.0285         -DE/DX =    0.0                 !
 ! A4    A(2,3,4)              120.4171         -DE/DX =    0.0                 !
 ! A5    A(2,3,14)             115.8919         -DE/DX =    0.0                 !
 ! A6    A(4,3,14)             118.0784         -DE/DX =    0.0                 !
 ! A7    A(3,4,15)             111.9942         -DE/DX =    0.0                 !
 ! A8    A(3,4,16)             113.7884         -DE/DX =    0.0                 !
 ! A9    A(3,4,17)             106.6377         -DE/DX =    0.0                 !
 ! A10   A(15,4,16)            107.7622         -DE/DX =    0.0                 !
 ! A11   A(15,4,17)            108.8676         -DE/DX =    0.0                 !
 ! A12   A(16,4,17)            107.6177         -DE/DX =    0.0                 !
 ! A13   A(2,5,6)              121.5362         -DE/DX =    0.0                 !
 ! A14   A(2,5,18)             117.9255         -DE/DX =    0.0                 !
 ! A15   A(6,5,18)             120.5375         -DE/DX =    0.0                 !
 ! A16   A(5,6,7)              124.0764         -DE/DX =    0.0                 !
 ! A17   A(6,7,8)              121.8062         -DE/DX =    0.0                 !
 ! A18   A(6,7,19)             120.9999         -DE/DX =    0.0                 !
 ! A19   A(8,7,19)             117.1939         -DE/DX =    0.0                 !
 ! A20   A(7,8,9)              121.5218         -DE/DX =    0.0                 !
 ! A21   A(7,8,13)             121.6977         -DE/DX =    0.0                 !
 ! A22   A(9,8,13)             116.7806         -DE/DX =    0.0                 !
 ! A23   A(8,9,10)             121.6188         -DE/DX =    0.0                 !
 ! A24   A(8,9,20)             118.5758         -DE/DX =    0.0                 !
 ! A25   A(10,9,20)            119.8055         -DE/DX =    0.0                 !
 ! A26   A(9,10,11)            120.8277         -DE/DX =    0.0                 !
 ! A27   A(9,10,21)            119.367          -DE/DX =    0.0                 !
 ! A28   A(11,10,21)           119.8053         -DE/DX =    0.0                 !
 ! A29   A(10,11,12)           118.3241         -DE/DX =    0.0                 !
 ! A30   A(10,11,22)           120.8298         -DE/DX =    0.0                 !
 ! A31   A(12,11,22)           120.8461         -DE/DX =    0.0                 !
 ! A32   A(11,12,13)           121.2629         -DE/DX =    0.0                 !
 ! A33   A(11,12,23)           119.5588         -DE/DX =    0.0                 !
 ! A34   A(13,12,23)           119.1783         -DE/DX =    0.0                 !
 ! A35   A(8,13,12)            121.1859         -DE/DX =    0.0                 !
 ! A36   A(8,13,24)            117.0887         -DE/DX =    0.0                 !
 ! A37   A(12,13,24)           121.7253         -DE/DX =    0.0                 !
 ! D1    D(1,2,3,4)             12.5379         -DE/DX =    0.0                 !
 ! D2    D(1,2,3,14)           165.623          -DE/DX =    0.0                 !
 ! D3    D(5,2,3,4)           -168.3816         -DE/DX =    0.0                 !
 ! D4    D(5,2,3,14)           -15.2966         -DE/DX =    0.0                 !
 ! D5    D(1,2,5,6)             -1.261          -DE/DX =    0.0                 !
 ! D6    D(1,2,5,18)           178.4198         -DE/DX =    0.0                 !
 ! D7    D(3,2,5,6)            179.748          -DE/DX =    0.0                 !
 ! D8    D(3,2,5,18)            -0.5712         -DE/DX =    0.0                 !
 ! D9    D(2,3,4,15)          -140.583          -DE/DX =    0.0                 !
 ! D10   D(2,3,4,16)            96.8961         -DE/DX =    0.0                 !
 ! D11   D(2,3,4,17)           -21.59           -DE/DX =    0.0                 !
 ! D12   D(14,3,4,15)           66.9043         -DE/DX =    0.0                 !
 ! D13   D(14,3,4,16)          -55.6166         -DE/DX =    0.0                 !
 ! D14   D(14,3,4,17)         -174.1027         -DE/DX =    0.0                 !
 ! D15   D(2,5,6,7)           -179.89           -DE/DX =    0.0                 !
 ! D16   D(18,5,6,7)             0.4375         -DE/DX =    0.0                 !
 ! D17   D(5,6,7,8)            179.8395         -DE/DX =    0.0                 !
 ! D18   D(5,6,7,19)            -0.1317         -DE/DX =    0.0                 !
 ! D19   D(6,7,8,9)           -179.9821         -DE/DX =    0.0                 !
 ! D20   D(6,7,8,13)             0.0139         -DE/DX =    0.0                 !
 ! D21   D(19,7,8,9)            -0.01           -DE/DX =    0.0                 !
 ! D22   D(19,7,8,13)          179.9861         -DE/DX =    0.0                 !
 ! D23   D(7,8,9,10)           179.9907         -DE/DX =    0.0                 !
 ! D24   D(7,8,9,20)            -0.0149         -DE/DX =    0.0                 !
 ! D25   D(13,8,9,10)           -0.0055         -DE/DX =    0.0                 !
 ! D26   D(13,8,9,20)          179.9888         -DE/DX =    0.0                 !
 ! D27   D(7,8,13,12)         -179.991          -DE/DX =    0.0                 !
 ! D28   D(7,8,13,24)            0.0221         -DE/DX =    0.0                 !
 ! D29   D(9,8,13,12)            0.0053         -DE/DX =    0.0                 !
 ! D30   D(9,8,13,24)         -179.9816         -DE/DX =    0.0                 !
 ! D31   D(8,9,10,11)            0.0008         -DE/DX =    0.0                 !
 ! D32   D(8,9,10,21)          179.9921         -DE/DX =    0.0                 !
 ! D33   D(20,9,10,11)        -179.9934         -DE/DX =    0.0                 !
 ! D34   D(20,9,10,21)          -0.0021         -DE/DX =    0.0                 !
 ! D35   D(9,10,11,12)           0.0042         -DE/DX =    0.0                 !
 ! D36   D(9,10,11,22)         179.9879         -DE/DX =    0.0                 !
 ! D37   D(21,10,11,12)       -179.987          -DE/DX =    0.0                 !
 ! D38   D(21,10,11,22)         -0.0033         -DE/DX =    0.0                 !
 ! D39   D(10,11,12,13)         -0.0045         -DE/DX =    0.0                 !
 ! D40   D(10,11,12,23)        179.9855         -DE/DX =    0.0                 !
 ! D41   D(22,11,12,13)       -179.9882         -DE/DX =    0.0                 !
 ! D42   D(22,11,12,23)          0.0019         -DE/DX =    0.0                 !
 ! D43   D(11,12,13,8)          -0.0003         -DE/DX =    0.0                 !
 ! D44   D(11,12,13,24)        179.9859         -DE/DX =    0.0                 !
 ! D45   D(23,12,13,8)        -179.9904         -DE/DX =    0.0                 !
 ! D46   D(23,12,13,24)         -0.0041         -DE/DX =    0.0                 !
 --------------------------------------------------------------------------------
 GradGradGradGradGradGradGradGradGradGradGradGradGradGradGradGradGradGrad

                          Input orientation:                          
 ---------------------------------------------------------------------
 Center     Atomic      Atomic             Coordinates (Angstroms)
 Number     Number       Type             X           Y           Z
 ---------------------------------------------------------------------
      1          8           0        2.873980    1.430256    0.009193
      2          6           0        2.900301    0.206071   -0.041163
      3          7           0        4.141964   -0.459750   -0.084295
      4          6           0        5.354911    0.248482    0.197514
      5          6           0        1.771424   -0.697986   -0.085010
      6          7           0        0.530724   -0.254003   -0.049140
      7          6           0       -0.526465   -1.026506   -0.083780
      8          6           0       -1.862880   -0.487884   -0.038283
      9          6           0       -3.000859   -1.328136   -0.075707
     10          6           0       -4.291682   -0.810437   -0.031719
     11          6           0       -4.508000    0.566861    0.051478
     12          6           0       -3.391426    1.414728    0.089466
     13          6           0       -2.101523    0.908197    0.046148
     14          1           0        4.116876   -1.452816    0.101401
     15          1           0        6.178020   -0.059571   -0.469990
     16          1           0        5.706424    0.134905    1.242350
     17          1           0        5.143140    1.312642    0.032093
     18          1           0        1.978726   -1.783304   -0.155586
     19          1           0       -0.426492   -2.127462   -0.149208
     20          1           0       -2.850741   -2.409722   -0.140943
     21          1           0       -5.145125   -1.493936   -0.063051
     22          1           0       -5.520739    0.973086    0.085795
     23          1           0       -3.537513    2.496762    0.154334
     24          1           0       -1.227395    1.560934    0.075012
 ---------------------------------------------------------------------
                    Distance matrix (angstroms):
                    1          2          3          4          5
     1  O    0.000000
     2  C    1.225502   0.000000
     3  N    2.277860   1.409576   0.000000
     4  C    2.754464   2.466551   1.432567   0.000000
     5  C    2.398732   1.446930   2.382481   3.717122   0.000000
     6  N    2.886343   2.413841   3.617268   4.856553   1.318236
     7  C    4.196111   3.641949   4.702706   6.024558   2.321255
     8  C    5.110710   4.813469   6.005087   7.259087   3.640672
     9  C    6.490737   6.097432   7.195422   8.507600   4.813717
    10  C    7.507934   7.263470   8.441098   9.707245   6.064383
    11  C    7.432419   7.417660   8.711730   9.869128   6.406999
    12  C    6.265939   6.408100   7.765039   8.824410   5.581132
    13  C    5.002953   5.051618   6.392920   7.487091   4.194848
    14  H    3.140923   2.062107   1.010590   2.106272   2.470964
    15  H    3.655938   3.316308   2.110552   1.103616   4.469214
    16  H    3.349828   3.086550   2.135681   1.108216   4.235541
    17  H    2.272321   2.502037   2.038939   1.097565   3.927442
    18  H    3.339999   2.195451   2.537021   3.956192   1.107190
    19  H    4.855466   4.065046   4.863771   6.260187   2.622662
    20  H    6.894954   6.318767   7.259719   8.632109   4.929257
    21  H    8.535933   8.223100   9.344518  10.646814   6.962232
    22  H    8.407507   8.456853   9.769841  10.900335   7.483135
    23  H    6.501211   6.836003   8.232392   9.172340   6.200687
    24  H    4.103984   4.345921   5.739213   6.712994   3.757824
                    6          7          8          9         10
     6  N    0.000000
     7  C    1.309813   0.000000
     8  C    2.405027   1.441592   0.000000
     9  C    3.691415   2.492724   1.415069   0.000000
    10  C    4.854432   3.771770   2.450135   1.391463   0.000000
    11  C    5.106141   4.290656   2.849070   2.424595   1.396662
    12  C    4.264637   3.767975   2.443912   2.775451   2.403436
    13  C    2.878977   2.498151   1.418845   2.413470   2.785060
    14  H    3.784218   4.666546   6.058720   7.121030   8.434110
    15  H    5.666293   6.784854   8.063864   9.274511  10.505738
    16  H    5.348557   6.477376   7.702094   8.927180  10.123193
    17  H    4.871895   6.134285   7.234028   8.562128   9.670956
    18  H    2.108745   2.617992   4.055837   5.000983   6.346639
    19  H    2.106211   1.107420   2.182597   2.696608   4.085101
    20  H    4.011216   2.705330   2.163300   1.093901   2.155447
    21  H    5.809723   4.642298   3.433057   2.150703   1.093854
    22  H    6.176096   5.382369   3.940782   3.416357   2.169181
    23  H    4.915145   4.640746   3.427770   3.869206   3.397197
    24  H    2.529899   2.685397   2.148100   3.393319   3.876164
                   11         12         13         14         15
    11  C    0.000000
    12  C    1.402518   0.000000
    13  C    2.430570   1.386471   0.000000
    14  H    8.858334   8.037261   6.651761   0.000000
    15  H   10.717060   9.698498   8.351875   2.552633   0.000000
    16  H   10.292677   9.259480   7.936807   2.519778   1.786710
    17  H    9.679930   8.535369   7.255957   2.950556   1.790540
    18  H    6.902446   6.255078   4.892167   2.178750   4.550184
    19  H    4.894727   4.625463   3.472623   4.600016   6.928106
    20  H    3.412269   3.869347   3.406598   7.037193   9.335417
    21  H    2.160076   3.399860   3.878876   9.263552  11.420885
    22  H    1.091713   2.174635   3.420062   9.938253  11.757392
    23  H    2.162623   1.093776   2.144134   8.613457  10.065595
    24  H    3.427988   2.169013   1.091329   6.135521   7.600213
                   16         17         18         19         20
    16  H    0.000000
    17  H    1.780190   0.000000
    18  H    4.419217   4.430984   0.000000
    19  H    6.683366   6.548891   2.429724   0.000000
    20  H    9.034029   8.819754   4.869945   2.440640   0.000000
    21  H   11.050488  10.664629   7.130326   4.761751   2.471625
    22  H   11.317657  10.669419   7.993618   5.968247   4.315517
    23  H    9.602734   8.761895   6.988841   5.581580   4.963106
    24  H    7.174544   6.375516   4.638568   3.781003   4.295113
                   21         22         23         24
    21  H    0.000000
    22  H    2.499887   0.000000
    23  H    4.307823   2.501894   0.000000
    24  H    4.969899   4.333415   2.493734   0.000000
 Stoichiometry    C10H11N2O(1-)
 Framework group  C1[X(C10H11N2O)]
 Deg. of freedom    66
 Full point group                 C1      NOp   1
 Largest Abelian subgroup         C1      NOp   1
 Largest concise Abelian subgroup C1      NOp   1
                         Standard orientation:                         
 ---------------------------------------------------------------------
 Center     Atomic      Atomic             Coordinates (Angstroms)
 Number     Number       Type             X           Y           Z
 ---------------------------------------------------------------------
      1          8           0        2.877551    1.399661   -0.088466
      2          6           0        2.880479    0.174343   -0.067450
      3          7           0        4.109096   -0.516537   -0.077085
      4          6           0        5.336720    0.183525    0.157650
      5          6           0        1.734512   -0.708930   -0.053575
      6          7           0        0.502629   -0.239913   -0.038256
      7          6           0       -0.569130   -0.992717   -0.023174
      8          6           0       -1.894868   -0.426845   -0.003347
      9          6           0       -3.048696   -1.245883    0.013259
     10          6           0       -4.329255   -0.701856    0.032601
     11          6           0       -4.519072    0.681843    0.036268
     12          6           0       -3.386499    1.508926    0.019874
     13          6           0       -2.106645    0.976101    0.000554
     14          1           0        4.066278   -1.496441    0.166323
     15          1           0        6.150205   -0.178594   -0.494332
     16          1           0        5.691732    0.124266    1.205790
     17          1           0        5.144177    1.240110   -0.068632
     18          1           0        1.920896   -1.800290   -0.061633
     19          1           0       -0.490320   -2.097328   -0.024713
     20          1           0       -2.919384   -2.332111    0.010563
     21          1           0       -5.195609   -1.369536    0.044905
     22          1           0       -5.523759    1.108712    0.051245
     23          1           0       -3.511774    2.595501    0.022159
     24          1           0       -1.220204    1.612537   -0.012512
 ---------------------------------------------------------------------
 Rotational constants (GHZ):           3.2091453           0.2702441           0.2498462

 **********************************************************************

            Population analysis using the SCF Density.

 **********************************************************************

 Orbital symmetries:
       Occupied  (A) (A) (A) (A) (A) (A) (A) (A) (A) (A) (A) (A)
                 (A) (A) (A) (A) (A) (A) (A) (A) (A) (A) (A) (A)
                 (A) (A) (A) (A) (A) (A) (A) (A) (A) (A) (A) (A)
                 (A) (A) (A) (A) (A) (A) (A) (A) (A) (A) (A)
       Virtual   (A) (A) (A) (A) (A) (A) (A) (A) (A) (A) (A) (A)
                 (A) (A) (A) (A) (A) (A) (A) (A) (A) (A) (A) (A)
                 (A) (A) (A) (A) (A) (A) (A) (A) (A) (A) (A) (A)
                 (A) (A) (A) (A) (A) (A) (A) (A) (A) (A) (A) (A)
                 (A) (A) (A) (A) (A) (A) (A) (A) (A) (A) (A) (A)
                 (A) (A) (A) (A) (A) (A) (A) (A) (A) (A) (A) (A)
                 (A) (A) (A) (A) (A) (A) (A) (A) (A) (A) (A) (A)
                 (A) (A) (A) (A) (A) (A) (A) (A) (A) (A) (A) (A)
                 (A) (A) (A) (A) (A) (A) (A) (A) (A) (A) (A) (A)
                 (A) (A) (A) (A) (A) (A) (A) (A) (A) (A) (A) (A)
                 (A) (A) (A) (A) (A) (A) (A) (A) (A) (A) (A) (A)
                 (A) (A) (A) (A) (A) (A) (A) (A) (A) (A) (A) (A)
                 (A) (A) (A) (A) (A) (A) (A) (A) (A) (A) (A) (A)
                 (A) (A) (A) (A) (A) (A) (A) (A) (A) (A) (A) (A)
                 (A) (A) (A) (A) (A) (A) (A) (A) (A) (A) (A) (A)
                 (A) (A) (A) (A) (A) (A) (A) (A) (A) (A)
 The electronic state is 1-A.
 Alpha  occ. eigenvalues --  -19.42030 -14.62106 -14.59262 -10.47921 -10.45759
 Alpha  occ. eigenvalues --  -10.42490 -10.42104 -10.41542 -10.41384 -10.41185
 Alpha  occ. eigenvalues --  -10.40332 -10.39408 -10.38586  -0.96808  -0.85482
 Alpha  occ. eigenvalues --   -0.85064  -0.80368  -0.70541  -0.68967  -0.66437
 Alpha  occ. eigenvalues --   -0.60853  -0.54920  -0.53682  -0.50224  -0.47757
 Alpha  occ. eigenvalues --   -0.44125  -0.42458  -0.40006  -0.38610  -0.37965
 Alpha  occ. eigenvalues --   -0.36923  -0.34714  -0.34564  -0.33753  -0.31798
 Alpha  occ. eigenvalues --   -0.31320  -0.30392  -0.30040  -0.26744  -0.25484
 Alpha  occ. eigenvalues --   -0.25243  -0.17167  -0.16895  -0.16847  -0.15981
 Alpha  occ. eigenvalues --   -0.14558  -0.04074
 Alpha virt. eigenvalues --    0.14699   0.16794   0.21538   0.22211   0.23592
 Alpha virt. eigenvalues --    0.24742   0.25333   0.27642   0.28154   0.28352
 Alpha virt. eigenvalues --    0.30048   0.30468   0.32382   0.33214   0.35068
 Alpha virt. eigenvalues --    0.35850   0.37972   0.40956   0.44563   0.45266
 Alpha virt. eigenvalues --    0.46352   0.48113   0.49890   0.50431   0.52189
 Alpha virt. eigenvalues --    0.53700   0.56278   0.57605   0.58238   0.59412
 Alpha virt. eigenvalues --    0.60850   0.61336   0.62051   0.64046   0.65236
 Alpha virt. eigenvalues --    0.65587   0.66144   0.68135   0.68514   0.68970
 Alpha virt. eigenvalues --    0.69882   0.71366   0.72099   0.72671   0.75749
 Alpha virt. eigenvalues --    0.77685   0.78816   0.79707   0.81089   0.82137
 Alpha virt. eigenvalues --    0.82332   0.83270   0.83522   0.83911   0.84908
 Alpha virt. eigenvalues --    0.86019   0.87584   0.88004   0.88569   0.89179
 Alpha virt. eigenvalues --    0.90163   0.90917   0.92416   0.93332   0.93750
 Alpha virt. eigenvalues --    0.96272   0.97194   0.97660   0.99860   1.00366
 Alpha virt. eigenvalues --    1.01290   1.02309   1.04696   1.10312   1.11477
 Alpha virt. eigenvalues --    1.12080   1.21058   1.22368   1.24392   1.26703
 Alpha virt. eigenvalues --    1.28807   1.30452   1.32675   1.33993   1.36488
 Alpha virt. eigenvalues --    1.38103   1.39237   1.43844   1.44258   1.44993
 Alpha virt. eigenvalues --    1.45357   1.45824   1.46437   1.47564   1.50117
 Alpha virt. eigenvalues --    1.51547   1.53057   1.58231   1.60761   1.64402
 Alpha virt. eigenvalues --    1.67408   1.68612   1.70523   1.73003   1.79218
 Alpha virt. eigenvalues --    1.83534   1.84662   1.85175   1.85744   1.90248
 Alpha virt. eigenvalues --    1.91383   1.93141   1.93252   1.93536   1.93898
 Alpha virt. eigenvalues --    1.94341   1.94555   1.94590   1.96942   1.97791
 Alpha virt. eigenvalues --    1.98934   2.03146   2.04708   2.06228   2.08241
 Alpha virt. eigenvalues --    2.09110   2.10670   2.10872   2.11201   2.14458
 Alpha virt. eigenvalues --    2.15107   2.15299   2.16395   2.19562   2.22516
 Alpha virt. eigenvalues --    2.23852   2.27553   2.29245   2.29626   2.29782
 Alpha virt. eigenvalues --    2.30945   2.31946   2.32978   2.36240   2.39331
 Alpha virt. eigenvalues --    2.42998   2.45137   2.45686   2.48584   2.50074
 Alpha virt. eigenvalues --    2.51222   2.53133   2.56740   2.57633   2.62309
 Alpha virt. eigenvalues --    2.66956   2.69008   2.72870   2.75046   2.77119
 Alpha virt. eigenvalues --    2.78301   2.79930   2.82287   2.83244   2.85482
 Alpha virt. eigenvalues --    2.86579   2.88674   2.92242   2.93825   2.97288
 Alpha virt. eigenvalues --    2.98369   3.00075   3.02880   3.03459   3.04444
 Alpha virt. eigenvalues --    3.06851   3.07480   3.08627   3.14355   3.21422
 Alpha virt. eigenvalues --    3.25682   3.32234   3.35583   3.40357   3.43362
 Alpha virt. eigenvalues --    3.55204   3.63343   3.75980   3.81078   3.88982
          Condensed to atoms (all electrons):
               1          2          3          4          5          6
     1  O    7.795765   0.744929  -0.121521  -0.012190  -0.102073   0.001949
     2  C    0.744929   4.736554   0.263693  -0.029887   0.218188  -0.063779
     3  N   -0.121521   0.263693   6.747834   0.340382  -0.141780   0.004044
     4  C   -0.012190  -0.029887   0.340382   4.506562   0.008796  -0.000175
     5  C   -0.102073   0.218188  -0.141780   0.008796   5.436470   0.498117
     6  N    0.001949  -0.063779   0.004044  -0.000175   0.498117   6.225628
     7  C    0.000092   0.011991  -0.000162   0.000011  -0.111189   0.573435
     8  C    0.000031   0.000225  -0.000002  -0.000000   0.017762  -0.114981
     9  C    0.000000   0.000004  -0.000000   0.000000  -0.000112   0.004521
    10  C   -0.000000   0.000000  -0.000000  -0.000000   0.000010  -0.000248
    11  C    0.000000   0.000000   0.000000  -0.000000  -0.000001   0.000024
    12  C   -0.000000  -0.000007  -0.000000  -0.000000  -0.000006   0.001261
    13  C   -0.000081  -0.000264  -0.000000  -0.000000   0.000201   0.008311
    14  H    0.004804  -0.000838   0.336170  -0.032779  -0.014005   0.000054
    15  H    0.000339   0.004672  -0.036240   0.392707  -0.000339   0.000004
    16  H    0.000087   0.001968  -0.041740   0.390617   0.000888   0.000006
    17  H    0.039371  -0.010214  -0.037473   0.385671   0.004099  -0.000032
    18  H    0.002821  -0.103772   0.004908  -0.000212   0.389272  -0.039335
    19  H   -0.000020  -0.001959   0.000050   0.000001  -0.020759  -0.052181
    20  H   -0.000000  -0.000002   0.000000   0.000000  -0.000038   0.000131
    21  H   -0.000000  -0.000000  -0.000000   0.000000  -0.000000   0.000003
    22  H    0.000000  -0.000000   0.000000  -0.000000   0.000000   0.000000
    23  H   -0.000000  -0.000000  -0.000000   0.000000   0.000001  -0.000024
    24  H    0.000572  -0.000210   0.000012  -0.000000  -0.001469   0.028425
               7          8          9         10         11         12
     1  O    0.000092   0.000031   0.000000  -0.000000   0.000000  -0.000000
     2  C    0.011991   0.000225   0.000004   0.000000   0.000000  -0.000007
     3  N   -0.000162  -0.000002  -0.000000  -0.000000   0.000000  -0.000000
     4  C    0.000011  -0.000000   0.000000  -0.000000  -0.000000  -0.000000
     5  C   -0.111189   0.017762  -0.000112   0.000010  -0.000001  -0.000006
     6  N    0.573435  -0.114981   0.004521  -0.000248   0.000024   0.001261
     7  C    5.135600   0.301422  -0.106828   0.013730  -0.000855   0.017528
     8  C    0.301422   5.382983   0.305086   0.083144  -0.140949   0.080268
     9  C   -0.106828   0.305086   5.213632   0.316583   0.073929  -0.142964
    10  C    0.013730   0.083144   0.316583   5.073220   0.278380   0.088149
    11  C   -0.000855  -0.140949   0.073929   0.278380   5.212594   0.251982
    12  C    0.017528   0.080268  -0.142964   0.088149   0.251982   5.141910
    13  C   -0.080607   0.239926   0.039634  -0.132052   0.079511   0.278315
    14  H   -0.000048  -0.000008  -0.000000   0.000000  -0.000000   0.000000
    15  H   -0.000000  -0.000000  -0.000000   0.000000  -0.000000   0.000000
    16  H   -0.000002   0.000000   0.000000   0.000000  -0.000000   0.000000
    17  H    0.000002  -0.000000  -0.000000   0.000000  -0.000000  -0.000000
    18  H   -0.013957  -0.001454  -0.000033  -0.000001   0.000000   0.000006
    19  H    0.404112  -0.109591  -0.017450   0.000377  -0.000065  -0.000269
    20  H   -0.018768  -0.067837   0.435316  -0.078604   0.014892  -0.001890
    21  H   -0.000312   0.015579  -0.073833   0.438936  -0.081126   0.015032
    22  H    0.000040  -0.001499   0.014775  -0.076310   0.441453  -0.075248
    23  H   -0.000359   0.015348  -0.001657   0.015278  -0.082951   0.442929
    24  H   -0.021781  -0.067842   0.015551  -0.001908   0.013897  -0.080279
              13         14         15         16         17         18
     1  O   -0.000081   0.004804   0.000339   0.000087   0.039371   0.002821
     2  C   -0.000264  -0.000838   0.004672   0.001968  -0.010214  -0.103772
     3  N   -0.000000   0.336170  -0.036240  -0.041740  -0.037473   0.004908
     4  C   -0.000000  -0.032779   0.392707   0.390617   0.385671  -0.000212
     5  C    0.000201  -0.014005  -0.000339   0.000888   0.004099   0.389272
     6  N    0.008311   0.000054   0.000004   0.000006  -0.000032  -0.039335
     7  C   -0.080607  -0.000048  -0.000000  -0.000002   0.000002  -0.013957
     8  C    0.239926  -0.000008  -0.000000   0.000000  -0.000000  -0.001454
     9  C    0.039634  -0.000000  -0.000000   0.000000  -0.000000  -0.000033
    10  C   -0.132052   0.000000   0.000000   0.000000   0.000000  -0.000001
    11  C    0.079511  -0.000000  -0.000000  -0.000000  -0.000000   0.000000
    12  C    0.278315   0.000000   0.000000   0.000000  -0.000000   0.000006
    13  C    5.196824   0.000001   0.000000   0.000000   0.000000   0.000325
    14  H    0.000001   0.595183  -0.002820  -0.006226   0.008333   0.004916
    15  H    0.000000  -0.002820   0.709000  -0.051093  -0.019070  -0.000030
    16  H    0.000000  -0.006226  -0.051093   0.726560  -0.024521   0.000051
    17  H    0.000000   0.008333  -0.019070  -0.024521   0.596339  -0.000385
    18  H    0.000325   0.004916  -0.000030   0.000051  -0.000385   0.810679
    19  H    0.017928   0.000061   0.000000   0.000000  -0.000000   0.020353
    20  H    0.016673   0.000000  -0.000000   0.000000  -0.000000   0.000038
    21  H   -0.001673   0.000000  -0.000000  -0.000000   0.000000   0.000000
    22  H    0.014041   0.000000   0.000000   0.000000  -0.000000   0.000000
    23  H   -0.073354   0.000000  -0.000000  -0.000000   0.000000  -0.000000
    24  H    0.449576  -0.000001   0.000000   0.000000  -0.000001   0.000336
              19         20         21         22         23         24
     1  O   -0.000020  -0.000000  -0.000000   0.000000  -0.000000   0.000572
     2  C   -0.001959  -0.000002  -0.000000  -0.000000  -0.000000  -0.000210
     3  N    0.000050   0.000000  -0.000000   0.000000  -0.000000   0.000012
     4  C    0.000001   0.000000   0.000000  -0.000000   0.000000  -0.000000
     5  C   -0.020759  -0.000038  -0.000000   0.000000   0.000001  -0.001469
     6  N   -0.052181   0.000131   0.000003   0.000000  -0.000024   0.028425
     7  C    0.404112  -0.018768  -0.000312   0.000040  -0.000359  -0.021781
     8  C   -0.109591  -0.067837   0.015579  -0.001499   0.015348  -0.067842
     9  C   -0.017450   0.435316  -0.073833   0.014775  -0.001657   0.015551
    10  C    0.000377  -0.078604   0.438936  -0.076310   0.015278  -0.001908
    11  C   -0.000065   0.014892  -0.081126   0.441453  -0.082951   0.013897
    12  C   -0.000269  -0.001890   0.015032  -0.075248   0.442929  -0.080279
    13  C    0.017928   0.016673  -0.001673   0.014041  -0.073354   0.449576
    14  H    0.000061   0.000000   0.000000   0.000000   0.000000  -0.000001
    15  H    0.000000  -0.000000  -0.000000   0.000000  -0.000000   0.000000
    16  H    0.000000   0.000000  -0.000000   0.000000  -0.000000   0.000000
    17  H   -0.000000  -0.000000   0.000000  -0.000000   0.000000  -0.000001
    18  H    0.020353   0.000038   0.000000   0.000000  -0.000000   0.000336
    19  H    0.828388   0.008743   0.000018   0.000000   0.000007   0.001626
    20  H    0.008743   0.738735  -0.014454  -0.000310   0.000044  -0.000223
    21  H    0.000018  -0.014454   0.744019  -0.013562  -0.000360   0.000035
    22  H    0.000000  -0.000310  -0.013562   0.742604  -0.013320  -0.000219
    23  H    0.000007   0.000044  -0.000360  -0.013320   0.732037  -0.012601
    24  H    0.001626  -0.000223   0.000035  -0.000219  -0.012601   0.662513
 Mulliken charges:
               1
     1  O   -0.354875
     2  C    0.228710
     3  N   -0.318176
     4  C    0.050495
     5  C   -0.182032
     6  N   -0.075156
     7  C   -0.103098
     8  C    0.062389
     9  C   -0.076155
    10  C   -0.018684
    11  C   -0.060715
    12  C   -0.016716
    13  C   -0.053235
    14  H    0.107204
    15  H    0.002871
    16  H    0.003405
    17  H    0.057881
    18  H   -0.074525
    19  H   -0.079369
    20  H   -0.032446
    21  H   -0.028301
    22  H   -0.032446
    23  H   -0.021017
    24  H    0.013991
 Sum of Mulliken charges =  -1.00000
 Mulliken charges with hydrogens summed into heavy atoms:
               1
     1  O   -0.354875
     2  C    0.228710
     3  N   -0.210972
     4  C    0.114652
     5  C   -0.256557
     6  N   -0.075156
     7  C   -0.182467
     8  C    0.062389
     9  C   -0.108600
    10  C   -0.046985
    11  C   -0.093161
    12  C   -0.037733
    13  C   -0.039243
 Electronic spatial extent (au):  <R**2>=           4228.5023
 Charge=             -1.0000 electrons
 Dipole moment (field-independent basis, Debye):
    X=             -0.2234    Y=             -2.6637    Z=              0.6146  Tot=              2.7428
 Quadrupole moment (field-independent basis, Debye-Ang):
   XX=           -112.4159   YY=            -82.8549   ZZ=            -84.7703
   XY=             -8.5786   XZ=              2.3229   YZ=             -0.3637
 Traceless Quadrupole moment (field-independent basis, Debye-Ang):
   XX=            -19.0689   YY=             10.4921   ZZ=              8.5767
   XY=             -8.5786   XZ=              2.3229   YZ=             -0.3637
 Octapole moment (field-independent basis, Debye-Ang**2):
  XXX=             54.0495  YYY=             -2.3630  ZZZ=             -0.0265  XYY=              0.9863
  XXY=            -28.6301  XXZ=              7.8236  XZZ=             19.5860  YZZ=              3.3066
  YYZ=              0.9601  XYZ=             -1.7785
 Hexadecapole moment (field-independent basis, Debye-Ang**3):
 XXXX=          -5682.5653 YYYY=           -532.5874 ZZZZ=           -100.0816 XXXY=            -52.5734
 XXXZ=             23.8511 YYYX=            -25.5105 YYYZ=             -1.3259 ZZZX=              2.2807
 ZZZY=             -1.2448 XXYY=           -977.2156 XXZZ=           -962.4469 YYZZ=           -114.3274
 XXYZ=             -8.5247 YYXZ=              3.1741 ZZXY=              8.0771
 N-N= 6.873500159247D+02 E-N=-2.717576391335D+03  KE= 5.660334645229D+02
 Unable to Open any file for archive entry.
 1\1\GINC-NOTCH059\FOpt\RM062X\def2SVP\C10H11N2O1(1-)\U6067110\31-Jan-2
 026\0\\#N OPT FREQ=NORAMAN Integral(Ultrafine) M062X EmpiricalDispersi
 on=GD3 def2SVP\\vsa3_crest_conformers-3\\-1,1\O,2.8739797003,1.4302555
 28,0.0091930968\C,2.9003013729,0.2060711243,-0.0411626118\N,4.14196421
 29,-0.4597503371,-0.0842953188\C,5.354910531,0.2484818652,0.1975141181
 \C,1.7714244688,-0.6979861891,-0.0850097185\N,0.5307235382,-0.25400271
 54,-0.0491399286\C,-0.5264652852,-1.0265056677,-0.0837799377\C,-1.8628
 801203,-0.4878843525,-0.0382829569\C,-3.0008592553,-1.3281355509,-0.07
 57066453\C,-4.2916816272,-0.8104371418,-0.0317191323\C,-4.5079995745,0
 .5668611388,0.05147844\C,-3.391426247,1.4147281036,0.0894656295\C,-2.1
 01522883,0.9081965026,0.046148417\H,4.116876321,-1.4528162782,0.101401
 1689\H,6.1780202905,-0.0595708108,-0.4699904759\H,5.7064236156,0.13490
 49148,1.2423497564\H,5.1431395405,1.3126421232,0.0320931976\H,1.978726
 033,-1.7833039222,-0.1555861112\H,-0.4264918337,-2.1274616873,-0.14920
 75714\H,-2.8507407503,-2.40972176,-0.1409428262\H,-5.1451245801,-1.493
 9357829,-0.0630514963\H,-5.5207394239,0.9730856146,0.085794824\H,-3.53
 75130398,2.4967615906,0.1543343402\H,-1.2273950045,1.5609336903,0.0750
 117427\\Version=ES64L-G16RevC.01\State=1-A\HF=-571.7690359\RMSD=6.412e
 -09\RMSF=6.095e-06\Dipole=-0.0688533,-1.0617693,0.1798688\Quadrupole=-
 13.9394188,7.5752621,6.3641567,-6.8776238,1.2443688,-0.1977002\PG=C01 
 [X(C10H11N2O1)]\\@
 The archive entry for this job was punched.


 A HARD FALL SHOULD MEAN A HIGH BOUNCE 
 IF ONE IS MADE OF THE RIGHT MATERIAL.

                -- THE CHEMIST ANALYST, MARCH 1950
 Job cpu time:       0 days  1 hours 13 minutes 53.0 seconds.
 Elapsed time:       0 days  0 hours  2 minutes 21.5 seconds.
 File lengths (MBytes):  RWF=     49 Int=      0 D2E=      0 Chk=      6 Scr=      2
 Normal termination of Gaussian 16 at Sat Jan 31 06:55:39 2026.
 Link1:  Proceeding to internal job step number  2.
 -------------------------------------------------------------------
 #N Geom=AllCheck Guess=TCheck SCRF=Check GenChk RM062X/def2SVP Freq
 -------------------------------------------------------------------
 1/10=4,29=7,30=1,38=1,40=1/1,3;
 2/12=2,40=1/2;
 3/5=43,7=101,11=2,14=-4,25=1,30=1,70=2,71=2,74=-55,75=-5,116=1,124=31,140=1/1,2,3;
 4/5=101/1;
 5/5=2,38=6,98=1/2;
 8/6=4,10=90,11=11/1;
 11/6=1,8=1,9=11,15=111,16=1/1,2,10;
 10/6=1/2;
 6/7=2,8=2,9=2,10=2,28=1/1;
 7/8=1,10=1,25=1/1,2,3,16;
 1/10=4,30=1/3;
 99//99;
 Structure from the checkpoint file:  "vsa3_crest_conformers-3.chk"
 -----------------------
 vsa3_crest_conformers-3
 -----------------------
 Charge = -1 Multiplicity = 1
 Redundant internal coordinates found in file.  (old form).
 O,0,2.8739797003,1.430255528,0.0091930968
 C,0,2.9003013729,0.2060711243,-0.0411626118
 N,0,4.1419642129,-0.4597503371,-0.0842953188
 C,0,5.354910531,0.2484818652,0.1975141181
 C,0,1.7714244688,-0.6979861891,-0.0850097185
 N,0,0.5307235382,-0.2540027154,-0.0491399286
 C,0,-0.5264652852,-1.0265056677,-0.0837799377
 C,0,-1.8628801203,-0.4878843525,-0.0382829569
 C,0,-3.0008592553,-1.3281355509,-0.0757066453
 C,0,-4.2916816272,-0.8104371418,-0.0317191323
 C,0,-4.5079995745,0.5668611388,0.05147844
 C,0,-3.391426247,1.4147281036,0.0894656295
 C,0,-2.101522883,0.9081965026,0.046148417
 H,0,4.116876321,-1.4528162782,0.1014011689
 H,0,6.1780202905,-0.0595708108,-0.4699904759
 H,0,5.7064236156,0.1349049148,1.2423497564
 H,0,5.1431395405,1.3126421232,0.0320931976
 H,0,1.978726033,-1.7833039222,-0.1555861112
 H,0,-0.4264918337,-2.1274616873,-0.1492075714
 H,0,-2.8507407503,-2.40972176,-0.1409428262
 H,0,-5.1451245801,-1.4939357829,-0.0630514963
 H,0,-5.5207394239,0.9730856146,0.085794824
 H,0,-3.5375130398,2.4967615906,0.1543343402
 H,0,-1.2273950045,1.5609336903,0.0750117427
 Recover connectivity data from disk.

 GradGradGradGradGradGradGradGradGradGradGradGradGradGradGradGradGradGrad
 Berny optimization.
 Initialization pass.
                           ----------------------------
                           !    Initial Parameters    !
                           ! (Angstroms and Degrees)  !
 --------------------------                            --------------------------
 ! Name  Definition              Value          Derivative Info.                !
 --------------------------------------------------------------------------------
 ! R1    R(1,2)                  1.2255         calculate D2E/DX2 analytically  !
 ! R2    R(2,3)                  1.4096         calculate D2E/DX2 analytically  !
 ! R3    R(2,5)                  1.4469         calculate D2E/DX2 analytically  !
 ! R4    R(3,4)                  1.4326         calculate D2E/DX2 analytically  !
 ! R5    R(3,14)                 1.0106         calculate D2E/DX2 analytically  !
 ! R6    R(4,15)                 1.1036         calculate D2E/DX2 analytically  !
 ! R7    R(4,16)                 1.1082         calculate D2E/DX2 analytically  !
 ! R8    R(4,17)                 1.0976         calculate D2E/DX2 analytically  !
 ! R9    R(5,6)                  1.3182         calculate D2E/DX2 analytically  !
 ! R10   R(5,18)                 1.1072         calculate D2E/DX2 analytically  !
 ! R11   R(6,7)                  1.3098         calculate D2E/DX2 analytically  !
 ! R12   R(7,8)                  1.4416         calculate D2E/DX2 analytically  !
 ! R13   R(7,19)                 1.1074         calculate D2E/DX2 analytically  !
 ! R14   R(8,9)                  1.4151         calculate D2E/DX2 analytically  !
 ! R15   R(8,13)                 1.4188         calculate D2E/DX2 analytically  !
 ! R16   R(9,10)                 1.3915         calculate D2E/DX2 analytically  !
 ! R17   R(9,20)                 1.0939         calculate D2E/DX2 analytically  !
 ! R18   R(10,11)                1.3967         calculate D2E/DX2 analytically  !
 ! R19   R(10,21)                1.0939         calculate D2E/DX2 analytically  !
 ! R20   R(11,12)                1.4025         calculate D2E/DX2 analytically  !
 ! R21   R(11,22)                1.0917         calculate D2E/DX2 analytically  !
 ! R22   R(12,13)                1.3865         calculate D2E/DX2 analytically  !
 ! R23   R(12,23)                1.0938         calculate D2E/DX2 analytically  !
 ! R24   R(13,24)                1.0913         calculate D2E/DX2 analytically  !
 ! A1    A(1,2,3)              119.4738         calculate D2E/DX2 analytically  !
 ! A2    A(1,2,5)              127.4903         calculate D2E/DX2 analytically  !
 ! A3    A(3,2,5)              113.0285         calculate D2E/DX2 analytically  !
 ! A4    A(2,3,4)              120.4171         calculate D2E/DX2 analytically  !
 ! A5    A(2,3,14)             115.8919         calculate D2E/DX2 analytically  !
 ! A6    A(4,3,14)             118.0784         calculate D2E/DX2 analytically  !
 ! A7    A(3,4,15)             111.9942         calculate D2E/DX2 analytically  !
 ! A8    A(3,4,16)             113.7884         calculate D2E/DX2 analytically  !
 ! A9    A(3,4,17)             106.6377         calculate D2E/DX2 analytically  !
 ! A10   A(15,4,16)            107.7622         calculate D2E/DX2 analytically  !
 ! A11   A(15,4,17)            108.8676         calculate D2E/DX2 analytically  !
 ! A12   A(16,4,17)            107.6177         calculate D2E/DX2 analytically  !
 ! A13   A(2,5,6)              121.5362         calculate D2E/DX2 analytically  !
 ! A14   A(2,5,18)             117.9255         calculate D2E/DX2 analytically  !
 ! A15   A(6,5,18)             120.5375         calculate D2E/DX2 analytically  !
 ! A16   A(5,6,7)              124.0764         calculate D2E/DX2 analytically  !
 ! A17   A(6,7,8)              121.8062         calculate D2E/DX2 analytically  !
 ! A18   A(6,7,19)             120.9999         calculate D2E/DX2 analytically  !
 ! A19   A(8,7,19)             117.1939         calculate D2E/DX2 analytically  !
 ! A20   A(7,8,9)              121.5218         calculate D2E/DX2 analytically  !
 ! A21   A(7,8,13)             121.6977         calculate D2E/DX2 analytically  !
 ! A22   A(9,8,13)             116.7806         calculate D2E/DX2 analytically  !
 ! A23   A(8,9,10)             121.6188         calculate D2E/DX2 analytically  !
 ! A24   A(8,9,20)             118.5758         calculate D2E/DX2 analytically  !
 ! A25   A(10,9,20)            119.8055         calculate D2E/DX2 analytically  !
 ! A26   A(9,10,11)            120.8277         calculate D2E/DX2 analytically  !
 ! A27   A(9,10,21)            119.367          calculate D2E/DX2 analytically  !
 ! A28   A(11,10,21)           119.8053         calculate D2E/DX2 analytically  !
 ! A29   A(10,11,12)           118.3241         calculate D2E/DX2 analytically  !
 ! A30   A(10,11,22)           120.8298         calculate D2E/DX2 analytically  !
 ! A31   A(12,11,22)           120.8461         calculate D2E/DX2 analytically  !
 ! A32   A(11,12,13)           121.2629         calculate D2E/DX2 analytically  !
 ! A33   A(11,12,23)           119.5588         calculate D2E/DX2 analytically  !
 ! A34   A(13,12,23)           119.1783         calculate D2E/DX2 analytically  !
 ! A35   A(8,13,12)            121.1859         calculate D2E/DX2 analytically  !
 ! A36   A(8,13,24)            117.0887         calculate D2E/DX2 analytically  !
 ! A37   A(12,13,24)           121.7253         calculate D2E/DX2 analytically  !
 ! D1    D(1,2,3,4)             12.5379         calculate D2E/DX2 analytically  !
 ! D2    D(1,2,3,14)           165.623          calculate D2E/DX2 analytically  !
 ! D3    D(5,2,3,4)           -168.3816         calculate D2E/DX2 analytically  !
 ! D4    D(5,2,3,14)           -15.2966         calculate D2E/DX2 analytically  !
 ! D5    D(1,2,5,6)             -1.261          calculate D2E/DX2 analytically  !
 ! D6    D(1,2,5,18)           178.4198         calculate D2E/DX2 analytically  !
 ! D7    D(3,2,5,6)            179.748          calculate D2E/DX2 analytically  !
 ! D8    D(3,2,5,18)            -0.5712         calculate D2E/DX2 analytically  !
 ! D9    D(2,3,4,15)          -140.583          calculate D2E/DX2 analytically  !
 ! D10   D(2,3,4,16)            96.8961         calculate D2E/DX2 analytically  !
 ! D11   D(2,3,4,17)           -21.59           calculate D2E/DX2 analytically  !
 ! D12   D(14,3,4,15)           66.9043         calculate D2E/DX2 analytically  !
 ! D13   D(14,3,4,16)          -55.6166         calculate D2E/DX2 analytically  !
 ! D14   D(14,3,4,17)         -174.1027         calculate D2E/DX2 analytically  !
 ! D15   D(2,5,6,7)           -179.89           calculate D2E/DX2 analytically  !
 ! D16   D(18,5,6,7)             0.4375         calculate D2E/DX2 analytically  !
 ! D17   D(5,6,7,8)            179.8395         calculate D2E/DX2 analytically  !
 ! D18   D(5,6,7,19)            -0.1317         calculate D2E/DX2 analytically  !
 ! D19   D(6,7,8,9)           -179.9821         calculate D2E/DX2 analytically  !
 ! D20   D(6,7,8,13)             0.0139         calculate D2E/DX2 analytically  !
 ! D21   D(19,7,8,9)            -0.01           calculate D2E/DX2 analytically  !
 ! D22   D(19,7,8,13)          179.9861         calculate D2E/DX2 analytically  !
 ! D23   D(7,8,9,10)           179.9907         calculate D2E/DX2 analytically  !
 ! D24   D(7,8,9,20)            -0.0149         calculate D2E/DX2 analytically  !
 ! D25   D(13,8,9,10)           -0.0055         calculate D2E/DX2 analytically  !
 ! D26   D(13,8,9,20)          179.9888         calculate D2E/DX2 analytically  !
 ! D27   D(7,8,13,12)         -179.991          calculate D2E/DX2 analytically  !
 ! D28   D(7,8,13,24)            0.0221         calculate D2E/DX2 analytically  !
 ! D29   D(9,8,13,12)            0.0053         calculate D2E/DX2 analytically  !
 ! D30   D(9,8,13,24)         -179.9816         calculate D2E/DX2 analytically  !
 ! D31   D(8,9,10,11)            0.0008         calculate D2E/DX2 analytically  !
 ! D32   D(8,9,10,21)          179.9921         calculate D2E/DX2 analytically  !
 ! D33   D(20,9,10,11)        -179.9934         calculate D2E/DX2 analytically  !
 ! D34   D(20,9,10,21)          -0.0021         calculate D2E/DX2 analytically  !
 ! D35   D(9,10,11,12)           0.0042         calculate D2E/DX2 analytically  !
 ! D36   D(9,10,11,22)         179.9879         calculate D2E/DX2 analytically  !
 ! D37   D(21,10,11,12)       -179.987          calculate D2E/DX2 analytically  !
 ! D38   D(21,10,11,22)         -0.0033         calculate D2E/DX2 analytically  !
 ! D39   D(10,11,12,13)         -0.0045         calculate D2E/DX2 analytically  !
 ! D40   D(10,11,12,23)        179.9855         calculate D2E/DX2 analytically  !
 ! D41   D(22,11,12,13)       -179.9882         calculate D2E/DX2 analytically  !
 ! D42   D(22,11,12,23)          0.0019         calculate D2E/DX2 analytically  !
 ! D43   D(11,12,13,8)          -0.0003         calculate D2E/DX2 analytically  !
 ! D44   D(11,12,13,24)        179.9859         calculate D2E/DX2 analytically  !
 ! D45   D(23,12,13,8)        -179.9904         calculate D2E/DX2 analytically  !
 ! D46   D(23,12,13,24)         -0.0041         calculate D2E/DX2 analytically  !
 --------------------------------------------------------------------------------
 Trust Radius=3.00D-01 FncErr=1.00D-07 GrdErr=1.00D-07 EigMax=2.50D+02 EigMin=1.00D-04
 Number of steps in this run=      2 maximum allowed number of steps=      2.
 GradGradGradGradGradGradGradGradGradGradGradGradGradGradGradGradGradGrad

                          Input orientation:                          
 ---------------------------------------------------------------------
 Center     Atomic      Atomic             Coordinates (Angstroms)
 Number     Number       Type             X           Y           Z
 ---------------------------------------------------------------------
      1          8           0        2.873980    1.430256    0.009193
      2          6           0        2.900301    0.206071   -0.041163
      3          7           0        4.141964   -0.459750   -0.084295
      4          6           0        5.354911    0.248482    0.197514
      5          6           0        1.771424   -0.697986   -0.085010
      6          7           0        0.530724   -0.254003   -0.049140
      7          6           0       -0.526465   -1.026506   -0.083780
      8          6           0       -1.862880   -0.487884   -0.038283
      9          6           0       -3.000859   -1.328136   -0.075707
     10          6           0       -4.291682   -0.810437   -0.031719
     11          6           0       -4.508000    0.566861    0.051478
     12          6           0       -3.391426    1.414728    0.089466
     13          6           0       -2.101523    0.908197    0.046148
     14          1           0        4.116876   -1.452816    0.101401
     15          1           0        6.178020   -0.059571   -0.469990
     16          1           0        5.706424    0.134905    1.242350
     17          1           0        5.143140    1.312642    0.032093
     18          1           0        1.978726   -1.783304   -0.155586
     19          1           0       -0.426492   -2.127462   -0.149208
     20          1           0       -2.850741   -2.409722   -0.140943
     21          1           0       -5.145125   -1.493936   -0.063051
     22          1           0       -5.520739    0.973086    0.085795
     23          1           0       -3.537513    2.496762    0.154334
     24          1           0       -1.227395    1.560934    0.075012
 ---------------------------------------------------------------------
                    Distance matrix (angstroms):
                    1          2          3          4          5
     1  O    0.000000
     2  C    1.225502   0.000000
     3  N    2.277860   1.409576   0.000000
     4  C    2.754464   2.466551   1.432567   0.000000
     5  C    2.398732   1.446930   2.382481   3.717122   0.000000
     6  N    2.886343   2.413841   3.617268   4.856553   1.318236
     7  C    4.196111   3.641949   4.702706   6.024558   2.321255
     8  C    5.110710   4.813469   6.005087   7.259087   3.640672
     9  C    6.490737   6.097432   7.195422   8.507600   4.813717
    10  C    7.507934   7.263470   8.441098   9.707245   6.064383
    11  C    7.432419   7.417660   8.711730   9.869128   6.406999
    12  C    6.265939   6.408100   7.765039   8.824410   5.581132
    13  C    5.002953   5.051618   6.392920   7.487091   4.194848
    14  H    3.140923   2.062107   1.010590   2.106272   2.470964
    15  H    3.655938   3.316308   2.110552   1.103616   4.469214
    16  H    3.349828   3.086550   2.135681   1.108216   4.235541
    17  H    2.272321   2.502037   2.038939   1.097565   3.927442
    18  H    3.339999   2.195451   2.537021   3.956192   1.107190
    19  H    4.855466   4.065046   4.863771   6.260187   2.622662
    20  H    6.894954   6.318767   7.259719   8.632109   4.929257
    21  H    8.535933   8.223100   9.344518  10.646814   6.962232
    22  H    8.407507   8.456853   9.769841  10.900335   7.483135
    23  H    6.501211   6.836003   8.232392   9.172340   6.200687
    24  H    4.103984   4.345921   5.739213   6.712994   3.757824
                    6          7          8          9         10
     6  N    0.000000
     7  C    1.309813   0.000000
     8  C    2.405027   1.441592   0.000000
     9  C    3.691415   2.492724   1.415069   0.000000
    10  C    4.854432   3.771770   2.450135   1.391463   0.000000
    11  C    5.106141   4.290656   2.849070   2.424595   1.396662
    12  C    4.264637   3.767975   2.443912   2.775451   2.403436
    13  C    2.878977   2.498151   1.418845   2.413470   2.785060
    14  H    3.784218   4.666546   6.058720   7.121030   8.434110
    15  H    5.666293   6.784854   8.063864   9.274511  10.505738
    16  H    5.348557   6.477376   7.702094   8.927180  10.123193
    17  H    4.871895   6.134285   7.234028   8.562128   9.670956
    18  H    2.108745   2.617992   4.055837   5.000983   6.346639
    19  H    2.106211   1.107420   2.182597   2.696608   4.085101
    20  H    4.011216   2.705330   2.163300   1.093901   2.155447
    21  H    5.809723   4.642298   3.433057   2.150703   1.093854
    22  H    6.176096   5.382369   3.940782   3.416357   2.169181
    23  H    4.915145   4.640746   3.427770   3.869206   3.397197
    24  H    2.529899   2.685397   2.148100   3.393319   3.876164
                   11         12         13         14         15
    11  C    0.000000
    12  C    1.402518   0.000000
    13  C    2.430570   1.386471   0.000000
    14  H    8.858334   8.037261   6.651761   0.000000
    15  H   10.717060   9.698498   8.351875   2.552633   0.000000
    16  H   10.292677   9.259480   7.936807   2.519778   1.786710
    17  H    9.679930   8.535369   7.255957   2.950556   1.790540
    18  H    6.902446   6.255078   4.892167   2.178750   4.550184
    19  H    4.894727   4.625463   3.472623   4.600016   6.928106
    20  H    3.412269   3.869347   3.406598   7.037193   9.335417
    21  H    2.160076   3.399860   3.878876   9.263552  11.420885
    22  H    1.091713   2.174635   3.420062   9.938253  11.757392
    23  H    2.162623   1.093776   2.144134   8.613457  10.065595
    24  H    3.427988   2.169013   1.091329   6.135521   7.600213
                   16         17         18         19         20
    16  H    0.000000
    17  H    1.780190   0.000000
    18  H    4.419217   4.430984   0.000000
    19  H    6.683366   6.548891   2.429724   0.000000
    20  H    9.034029   8.819754   4.869945   2.440640   0.000000
    21  H   11.050488  10.664629   7.130326   4.761751   2.471625
    22  H   11.317657  10.669419   7.993618   5.968247   4.315517
    23  H    9.602734   8.761895   6.988841   5.581580   4.963106
    24  H    7.174544   6.375516   4.638568   3.781003   4.295113
                   21         22         23         24
    21  H    0.000000
    22  H    2.499887   0.000000
    23  H    4.307823   2.501894   0.000000
    24  H    4.969899   4.333415   2.493734   0.000000
 Stoichiometry    C10H11N2O(1-)
 Framework group  C1[X(C10H11N2O)]
 Deg. of freedom    66
 Full point group                 C1      NOp   1
 Largest Abelian subgroup         C1      NOp   1
 Largest concise Abelian subgroup C1      NOp   1
                         Standard orientation:                         
 ---------------------------------------------------------------------
 Center     Atomic      Atomic             Coordinates (Angstroms)
 Number     Number       Type             X           Y           Z
 ---------------------------------------------------------------------
      1          8           0        2.877551    1.399661   -0.088466
      2          6           0        2.880479    0.174343   -0.067450
      3          7           0        4.109096   -0.516537   -0.077085
      4          6           0        5.336720    0.183525    0.157650
      5          6           0        1.734512   -0.708930   -0.053575
      6          7           0        0.502629   -0.239913   -0.038256
      7          6           0       -0.569130   -0.992717   -0.023174
      8          6           0       -1.894868   -0.426845   -0.003347
      9          6           0       -3.048696   -1.245883    0.013259
     10          6           0       -4.329255   -0.701856    0.032601
     11          6           0       -4.519072    0.681843    0.036268
     12          6           0       -3.386499    1.508926    0.019874
     13          6           0       -2.106645    0.976101    0.000554
     14          1           0        4.066278   -1.496441    0.166323
     15          1           0        6.150205   -0.178594   -0.494332
     16          1           0        5.691732    0.124266    1.205790
     17          1           0        5.144177    1.240110   -0.068632
     18          1           0        1.920896   -1.800290   -0.061633
     19          1           0       -0.490320   -2.097328   -0.024713
     20          1           0       -2.919384   -2.332111    0.010563
     21          1           0       -5.195609   -1.369536    0.044905
     22          1           0       -5.523759    1.108712    0.051245
     23          1           0       -3.511774    2.595501    0.022159
     24          1           0       -1.220204    1.612537   -0.012512
 ---------------------------------------------------------------------
 Rotational constants (GHZ):           3.2091453           0.2702441           0.2498462
 Standard basis: def2SVP (5D, 7F)
 There are   250 symmetry adapted cartesian basis functions of A   symmetry.
 There are   237 symmetry adapted basis functions of A   symmetry.
   237 basis functions,   402 primitive gaussians,   250 cartesian basis functions
    47 alpha electrons       47 beta electrons
       nuclear repulsion energy       687.3508090995 Hartrees.
 NAtoms=   24 NActive=   24 NUniq=   24 SFac= 1.00D+00 NAtFMM=   60 NAOKFM=F Big=F
 Integral buffers will be    131072 words long.
 Raffenetti 2 integral format.
 Two-electron integral symmetry is turned on.
 Nuclear repulsion after empirical dispersion term =      687.3500159247 Hartrees.
 One-electron integrals computed using PRISM.
   1 Symmetry operations used in ECPInt.
 ECPInt:  NShTT=    6216 NPrTT=   22568 LenC2=    5549 LenP2D=   14676.
 LDataN:  DoStor=T MaxTD1= 4 Len=   56
 NBasis=   237 RedAO= T EigKep=  3.05D-04  NBF=   237
 NBsUse=   237 1.00D-06 EigRej= -1.00D+00 NBFU=   237
 Initial guess from the checkpoint file:  "vsa3_crest_conformers-3.chk"
 B after Tr=     0.000000   -0.000000   -0.000000
         Rot=    1.000000    0.000000   -0.000000   -0.000000 Ang=   0.00 deg.
 Requested convergence on RMS density matrix=1.00D-08 within 128 cycles.
 Requested convergence on MAX density matrix=1.00D-06.
 Requested convergence on             energy=1.00D-06.
 No special actions if energy rises.
 SCF Done:  E(RM062X) =  -571.769035863     A.U. after    1 cycles
            NFock=  1  Conv=0.31D-08     -V/T= 2.0101
 DoSCS=F DFT=T ScalE2(SS,OS)=  1.000000  1.000000
 Range of M.O.s used for correlation:     1   237
 NBasis=   237 NAE=    47 NBE=    47 NFC=     0 NFV=     0
 NROrb=    237 NOA=    47 NOB=    47 NVA=   190 NVB=   190

 **** Warning!!: The largest alpha MO coefficient is  0.16041827D+02

   1 Symmetry operations used in ECPInt.
 ECPInt:  NShTT=    6216 NPrTT=   22568 LenC2=    5549 LenP2D=   14676.
 LDataN:  DoStor=T MaxTD1= 5 Len=  102
 Symmetrizing basis deriv contribution to polar:
 IMax=3 JMax=2 DiffMx= 0.00D+00
 G2DrvN: will do    25 centers at a time, making    1 passes.
 Calling FoFCou, ICntrl=  3107 FMM=F I1Cent=   0 AccDes= 0.00D+00.
 End of G2Drv F.D. properties file   721 does not exist.
 End of G2Drv F.D. properties file   722 does not exist.
 End of G2Drv F.D. properties file   788 does not exist.
          IDoAtm=111111111111111111111111
          Differentiating once with respect to electric field.
                with respect to dipole field.
          Differentiating once with respect to nuclear coordinates.
 Keep R1 ints in memory in canonical form, NReq=432239686.
          There are    75 degrees of freedom in the 1st order CPHF.  IDoFFX=6 NUNeed=     3.
     72 vectors produced by pass  0 Test12= 1.19D-14 1.33D-09 XBig12= 3.48D+02 1.66D+01.
 AX will form    72 AO Fock derivatives at one time.
     72 vectors produced by pass  1 Test12= 1.19D-14 1.33D-09 XBig12= 3.17D+01 1.02D+00.
     72 vectors produced by pass  2 Test12= 1.19D-14 1.33D-09 XBig12= 5.02D-01 7.27D-02.
     72 vectors produced by pass  3 Test12= 1.19D-14 1.33D-09 XBig12= 4.61D-03 8.74D-03.
     72 vectors produced by pass  4 Test12= 1.19D-14 1.33D-09 XBig12= 3.86D-05 8.61D-04.
     72 vectors produced by pass  5 Test12= 1.19D-14 1.33D-09 XBig12= 1.53D-07 3.67D-05.
     46 vectors produced by pass  6 Test12= 1.19D-14 1.33D-09 XBig12= 3.98D-10 1.75D-06.
      4 vectors produced by pass  7 Test12= 1.19D-14 1.33D-09 XBig12= 9.61D-13 7.12D-08.
      3 vectors produced by pass  8 Test12= 1.19D-14 1.33D-09 XBig12= 2.57D-15 4.54D-09.
 InvSVY:  IOpt=1 It=  1 EMax= 7.11D-15
 Solved reduced A of dimension   485 with    75 vectors.
 Isotropic polarizability for W=    0.000000      178.13 Bohr**3.
 End of Minotr F.D. properties file   721 does not exist.
 End of Minotr F.D. properties file   722 does not exist.
 End of Minotr F.D. properties file   788 does not exist.

 **********************************************************************

            Population analysis using the SCF Density.

 **********************************************************************

 Orbital symmetries:
       Occupied  (A) (A) (A) (A) (A) (A) (A) (A) (A) (A) (A) (A)
                 (A) (A) (A) (A) (A) (A) (A) (A) (A) (A) (A) (A)
                 (A) (A) (A) (A) (A) (A) (A) (A) (A) (A) (A) (A)
                 (A) (A) (A) (A) (A) (A) (A) (A) (A) (A) (A)
       Virtual   (A) (A) (A) (A) (A) (A) (A) (A) (A) (A) (A) (A)
                 (A) (A) (A) (A) (A) (A) (A) (A) (A) (A) (A) (A)
                 (A) (A) (A) (A) (A) (A) (A) (A) (A) (A) (A) (A)
                 (A) (A) (A) (A) (A) (A) (A) (A) (A) (A) (A) (A)
                 (A) (A) (A) (A) (A) (A) (A) (A) (A) (A) (A) (A)
                 (A) (A) (A) (A) (A) (A) (A) (A) (A) (A) (A) (A)
                 (A) (A) (A) (A) (A) (A) (A) (A) (A) (A) (A) (A)
                 (A) (A) (A) (A) (A) (A) (A) (A) (A) (A) (A) (A)
                 (A) (A) (A) (A) (A) (A) (A) (A) (A) (A) (A) (A)
                 (A) (A) (A) (A) (A) (A) (A) (A) (A) (A) (A) (A)
                 (A) (A) (A) (A) (A) (A) (A) (A) (A) (A) (A) (A)
                 (A) (A) (A) (A) (A) (A) (A) (A) (A) (A) (A) (A)
                 (A) (A) (A) (A) (A) (A) (A) (A) (A) (A) (A) (A)
                 (A) (A) (A) (A) (A) (A) (A) (A) (A) (A) (A) (A)
                 (A) (A) (A) (A) (A) (A) (A) (A) (A) (A) (A) (A)
                 (A) (A) (A) (A) (A) (A) (A) (A) (A) (A)
 The electronic state is 1-A.
 Alpha  occ. eigenvalues --  -19.42030 -14.62106 -14.59262 -10.47921 -10.45760
 Alpha  occ. eigenvalues --  -10.42490 -10.42104 -10.41542 -10.41384 -10.41185
 Alpha  occ. eigenvalues --  -10.40332 -10.39408 -10.38586  -0.96808  -0.85482
 Alpha  occ. eigenvalues --   -0.85064  -0.80368  -0.70541  -0.68967  -0.66437
 Alpha  occ. eigenvalues --   -0.60853  -0.54920  -0.53682  -0.50224  -0.47757
 Alpha  occ. eigenvalues --   -0.44125  -0.42458  -0.40006  -0.38610  -0.37965
 Alpha  occ. eigenvalues --   -0.36923  -0.34714  -0.34564  -0.33753  -0.31798
 Alpha  occ. eigenvalues --   -0.31320  -0.30392  -0.30040  -0.26744  -0.25484
 Alpha  occ. eigenvalues --   -0.25243  -0.17167  -0.16895  -0.16847  -0.15981
 Alpha  occ. eigenvalues --   -0.14558  -0.04074
 Alpha virt. eigenvalues --    0.14699   0.16794   0.21538   0.22211   0.23592
 Alpha virt. eigenvalues --    0.24742   0.25333   0.27642   0.28154   0.28352
 Alpha virt. eigenvalues --    0.30048   0.30468   0.32382   0.33214   0.35068
 Alpha virt. eigenvalues --    0.35850   0.37972   0.40956   0.44563   0.45266
 Alpha virt. eigenvalues --    0.46352   0.48112   0.49890   0.50431   0.52189
 Alpha virt. eigenvalues --    0.53700   0.56278   0.57605   0.58238   0.59412
 Alpha virt. eigenvalues --    0.60850   0.61336   0.62051   0.64046   0.65236
 Alpha virt. eigenvalues --    0.65587   0.66144   0.68135   0.68514   0.68970
 Alpha virt. eigenvalues --    0.69882   0.71366   0.72099   0.72671   0.75749
 Alpha virt. eigenvalues --    0.77685   0.78816   0.79707   0.81089   0.82137
 Alpha virt. eigenvalues --    0.82332   0.83270   0.83522   0.83911   0.84908
 Alpha virt. eigenvalues --    0.86019   0.87584   0.88004   0.88569   0.89179
 Alpha virt. eigenvalues --    0.90163   0.90917   0.92416   0.93332   0.93750
 Alpha virt. eigenvalues --    0.96272   0.97194   0.97660   0.99860   1.00366
 Alpha virt. eigenvalues --    1.01290   1.02309   1.04696   1.10312   1.11477
 Alpha virt. eigenvalues --    1.12080   1.21058   1.22368   1.24392   1.26703
 Alpha virt. eigenvalues --    1.28807   1.30452   1.32675   1.33993   1.36488
 Alpha virt. eigenvalues --    1.38103   1.39237   1.43844   1.44258   1.44993
 Alpha virt. eigenvalues --    1.45357   1.45824   1.46437   1.47564   1.50117
 Alpha virt. eigenvalues --    1.51547   1.53057   1.58231   1.60761   1.64402
 Alpha virt. eigenvalues --    1.67408   1.68612   1.70523   1.73003   1.79218
 Alpha virt. eigenvalues --    1.83534   1.84662   1.85175   1.85744   1.90248
 Alpha virt. eigenvalues --    1.91383   1.93141   1.93252   1.93536   1.93898
 Alpha virt. eigenvalues --    1.94341   1.94555   1.94590   1.96942   1.97791
 Alpha virt. eigenvalues --    1.98934   2.03146   2.04708   2.06228   2.08241
 Alpha virt. eigenvalues --    2.09110   2.10670   2.10872   2.11201   2.14458
 Alpha virt. eigenvalues --    2.15107   2.15299   2.16395   2.19562   2.22516
 Alpha virt. eigenvalues --    2.23852   2.27553   2.29245   2.29626   2.29782
 Alpha virt. eigenvalues --    2.30945   2.31946   2.32978   2.36240   2.39331
 Alpha virt. eigenvalues --    2.42998   2.45137   2.45686   2.48584   2.50074
 Alpha virt. eigenvalues --    2.51222   2.53133   2.56740   2.57633   2.62309
 Alpha virt. eigenvalues --    2.66956   2.69008   2.72870   2.75046   2.77119
 Alpha virt. eigenvalues --    2.78301   2.79930   2.82287   2.83244   2.85482
 Alpha virt. eigenvalues --    2.86579   2.88674   2.92242   2.93825   2.97288
 Alpha virt. eigenvalues --    2.98369   3.00075   3.02880   3.03459   3.04444
 Alpha virt. eigenvalues --    3.06851   3.07480   3.08627   3.14355   3.21422
 Alpha virt. eigenvalues --    3.25682   3.32234   3.35583   3.40357   3.43362
 Alpha virt. eigenvalues --    3.55204   3.63343   3.75980   3.81078   3.88982
          Condensed to atoms (all electrons):
               1          2          3          4          5          6
     1  O    7.795766   0.744929  -0.121521  -0.012190  -0.102073   0.001949
     2  C    0.744929   4.736553   0.263693  -0.029887   0.218188  -0.063779
     3  N   -0.121521   0.263693   6.747834   0.340382  -0.141780   0.004044
     4  C   -0.012190  -0.029887   0.340382   4.506562   0.008796  -0.000175
     5  C   -0.102073   0.218188  -0.141780   0.008796   5.436470   0.498117
     6  N    0.001949  -0.063779   0.004044  -0.000175   0.498117   6.225627
     7  C    0.000092   0.011991  -0.000162   0.000011  -0.111189   0.573435
     8  C    0.000031   0.000225  -0.000002  -0.000000   0.017762  -0.114981
     9  C    0.000000   0.000004  -0.000000   0.000000  -0.000112   0.004521
    10  C   -0.000000   0.000000  -0.000000  -0.000000   0.000010  -0.000248
    11  C    0.000000   0.000000   0.000000  -0.000000  -0.000001   0.000024
    12  C   -0.000000  -0.000007  -0.000000  -0.000000  -0.000006   0.001261
    13  C   -0.000081  -0.000264  -0.000000  -0.000000   0.000201   0.008311
    14  H    0.004804  -0.000838   0.336170  -0.032779  -0.014005   0.000054
    15  H    0.000339   0.004672  -0.036240   0.392707  -0.000339   0.000004
    16  H    0.000087   0.001968  -0.041740   0.390617   0.000888   0.000006
    17  H    0.039371  -0.010214  -0.037473   0.385671   0.004099  -0.000032
    18  H    0.002821  -0.103772   0.004908  -0.000212   0.389272  -0.039335
    19  H   -0.000020  -0.001959   0.000050   0.000001  -0.020759  -0.052181
    20  H   -0.000000  -0.000002   0.000000   0.000000  -0.000038   0.000131
    21  H   -0.000000  -0.000000  -0.000000   0.000000  -0.000000   0.000003
    22  H    0.000000  -0.000000   0.000000  -0.000000   0.000000   0.000000
    23  H   -0.000000  -0.000000  -0.000000   0.000000   0.000001  -0.000024
    24  H    0.000572  -0.000210   0.000012  -0.000000  -0.001469   0.028425
               7          8          9         10         11         12
     1  O    0.000092   0.000031   0.000000  -0.000000   0.000000  -0.000000
     2  C    0.011991   0.000225   0.000004   0.000000   0.000000  -0.000007
     3  N   -0.000162  -0.000002  -0.000000  -0.000000   0.000000  -0.000000
     4  C    0.000011  -0.000000   0.000000  -0.000000  -0.000000  -0.000000
     5  C   -0.111189   0.017762  -0.000112   0.000010  -0.000001  -0.000006
     6  N    0.573435  -0.114981   0.004521  -0.000248   0.000024   0.001261
     7  C    5.135601   0.301422  -0.106828   0.013730  -0.000855   0.017528
     8  C    0.301422   5.382983   0.305086   0.083144  -0.140949   0.080268
     9  C   -0.106828   0.305086   5.213632   0.316583   0.073929  -0.142964
    10  C    0.013730   0.083144   0.316583   5.073220   0.278380   0.088149
    11  C   -0.000855  -0.140949   0.073929   0.278380   5.212595   0.251982
    12  C    0.017528   0.080268  -0.142964   0.088149   0.251982   5.141910
    13  C   -0.080607   0.239926   0.039634  -0.132052   0.079511   0.278315
    14  H   -0.000048  -0.000008  -0.000000   0.000000  -0.000000   0.000000
    15  H   -0.000000  -0.000000  -0.000000   0.000000  -0.000000   0.000000
    16  H   -0.000002   0.000000   0.000000   0.000000  -0.000000   0.000000
    17  H    0.000002  -0.000000  -0.000000   0.000000  -0.000000  -0.000000
    18  H   -0.013957  -0.001454  -0.000033  -0.000001   0.000000   0.000006
    19  H    0.404112  -0.109592  -0.017450   0.000377  -0.000065  -0.000269
    20  H   -0.018768  -0.067837   0.435316  -0.078604   0.014892  -0.001890
    21  H   -0.000312   0.015579  -0.073833   0.438936  -0.081126   0.015032
    22  H    0.000040  -0.001499   0.014775  -0.076310   0.441453  -0.075248
    23  H   -0.000359   0.015348  -0.001657   0.015278  -0.082951   0.442929
    24  H   -0.021781  -0.067842   0.015551  -0.001908   0.013897  -0.080279
              13         14         15         16         17         18
     1  O   -0.000081   0.004804   0.000339   0.000087   0.039371   0.002821
     2  C   -0.000264  -0.000838   0.004672   0.001968  -0.010214  -0.103772
     3  N   -0.000000   0.336170  -0.036240  -0.041740  -0.037473   0.004908
     4  C   -0.000000  -0.032779   0.392707   0.390617   0.385671  -0.000212
     5  C    0.000201  -0.014005  -0.000339   0.000888   0.004099   0.389272
     6  N    0.008311   0.000054   0.000004   0.000006  -0.000032  -0.039335
     7  C   -0.080607  -0.000048  -0.000000  -0.000002   0.000002  -0.013957
     8  C    0.239926  -0.000008  -0.000000   0.000000  -0.000000  -0.001454
     9  C    0.039634  -0.000000  -0.000000   0.000000  -0.000000  -0.000033
    10  C   -0.132052   0.000000   0.000000   0.000000   0.000000  -0.000001
    11  C    0.079511  -0.000000  -0.000000  -0.000000  -0.000000   0.000000
    12  C    0.278315   0.000000   0.000000   0.000000  -0.000000   0.000006
    13  C    5.196824   0.000001   0.000000   0.000000   0.000000   0.000325
    14  H    0.000001   0.595183  -0.002820  -0.006226   0.008333   0.004916
    15  H    0.000000  -0.002820   0.709000  -0.051093  -0.019070  -0.000030
    16  H    0.000000  -0.006226  -0.051093   0.726560  -0.024521   0.000051
    17  H    0.000000   0.008333  -0.019070  -0.024521   0.596339  -0.000385
    18  H    0.000325   0.004916  -0.000030   0.000051  -0.000385   0.810679
    19  H    0.017928   0.000061   0.000000   0.000000  -0.000000   0.020353
    20  H    0.016673   0.000000  -0.000000   0.000000  -0.000000   0.000038
    21  H   -0.001673   0.000000  -0.000000  -0.000000   0.000000   0.000000
    22  H    0.014041   0.000000   0.000000   0.000000  -0.000000   0.000000
    23  H   -0.073354   0.000000  -0.000000  -0.000000   0.000000  -0.000000
    24  H    0.449576  -0.000001   0.000000   0.000000  -0.000001   0.000336
              19         20         21         22         23         24
     1  O   -0.000020  -0.000000  -0.000000   0.000000  -0.000000   0.000572
     2  C   -0.001959  -0.000002  -0.000000  -0.000000  -0.000000  -0.000210
     3  N    0.000050   0.000000  -0.000000   0.000000  -0.000000   0.000012
     4  C    0.000001   0.000000   0.000000  -0.000000   0.000000  -0.000000
     5  C   -0.020759  -0.000038  -0.000000   0.000000   0.000001  -0.001469
     6  N   -0.052181   0.000131   0.000003   0.000000  -0.000024   0.028425
     7  C    0.404112  -0.018768  -0.000312   0.000040  -0.000359  -0.021781
     8  C   -0.109592  -0.067837   0.015579  -0.001499   0.015348  -0.067842
     9  C   -0.017450   0.435316  -0.073833   0.014775  -0.001657   0.015551
    10  C    0.000377  -0.078604   0.438936  -0.076310   0.015278  -0.001908
    11  C   -0.000065   0.014892  -0.081126   0.441453  -0.082951   0.013897
    12  C   -0.000269  -0.001890   0.015032  -0.075248   0.442929  -0.080279
    13  C    0.017928   0.016673  -0.001673   0.014041  -0.073354   0.449576
    14  H    0.000061   0.000000   0.000000   0.000000   0.000000  -0.000001
    15  H    0.000000  -0.000000  -0.000000   0.000000  -0.000000   0.000000
    16  H    0.000000   0.000000  -0.000000   0.000000  -0.000000   0.000000
    17  H   -0.000000  -0.000000   0.000000  -0.000000   0.000000  -0.000001
    18  H    0.020353   0.000038   0.000000   0.000000  -0.000000   0.000336
    19  H    0.828388   0.008743   0.000018   0.000000   0.000007   0.001626
    20  H    0.008743   0.738734  -0.014454  -0.000310   0.000044  -0.000223
    21  H    0.000018  -0.014454   0.744019  -0.013562  -0.000360   0.000035
    22  H    0.000000  -0.000310  -0.013562   0.742604  -0.013320  -0.000219
    23  H    0.000007   0.000044  -0.000360  -0.013320   0.732037  -0.012601
    24  H    0.001626  -0.000223   0.000035  -0.000219  -0.012601   0.662513
 Mulliken charges:
               1
     1  O   -0.354875
     2  C    0.228710
     3  N   -0.318176
     4  C    0.050495
     5  C   -0.182032
     6  N   -0.075156
     7  C   -0.103098
     8  C    0.062389
     9  C   -0.076155
    10  C   -0.018685
    11  C   -0.060715
    12  C   -0.016716
    13  C   -0.053234
    14  H    0.107204
    15  H    0.002871
    16  H    0.003405
    17  H    0.057881
    18  H   -0.074525
    19  H   -0.079369
    20  H   -0.032446
    21  H   -0.028301
    22  H   -0.032446
    23  H   -0.021017
    24  H    0.013991
 Sum of Mulliken charges =  -1.00000
 Mulliken charges with hydrogens summed into heavy atoms:
               1
     1  O   -0.354875
     2  C    0.228710
     3  N   -0.210972
     4  C    0.114652
     5  C   -0.256557
     6  N   -0.075156
     7  C   -0.182467
     8  C    0.062389
     9  C   -0.108600
    10  C   -0.046986
    11  C   -0.093161
    12  C   -0.037733
    13  C   -0.039243
 APT charges:
               1
     1  O   -0.972331
     2  C    1.869292
     3  N   -1.117841
     4  C    0.492743
     5  C   -1.259679
     6  N    0.982342
     7  C   -1.001513
     8  C    0.898957
     9  C   -0.442487
    10  C    0.226161
    11  C   -0.410580
    12  C    0.235720
    13  C   -0.320555
    14  H    0.159382
    15  H   -0.128562
    16  H   -0.159192
    17  H    0.087507
    18  H   -0.082417
    19  H   -0.079817
    20  H    0.003682
    21  H   -0.023821
    22  H   -0.010967
    23  H   -0.009482
    24  H    0.063454
 Sum of APT charges =  -1.00000
 APT charges with hydrogens summed into heavy atoms:
               1
     1  O   -0.972331
     2  C    1.869292
     3  N   -0.958458
     4  C    0.292496
     5  C   -1.342095
     6  N    0.982342
     7  C   -1.081330
     8  C    0.898957
     9  C   -0.438805
    10  C    0.202340
    11  C   -0.421547
    12  C    0.226238
    13  C   -0.257100
 Electronic spatial extent (au):  <R**2>=           4228.5023
 Charge=             -1.0000 electrons
 Dipole moment (field-independent basis, Debye):
    X=             -0.2234    Y=             -2.6637    Z=              0.6146  Tot=              2.7428
 Quadrupole moment (field-independent basis, Debye-Ang):
   XX=           -112.4159   YY=            -82.8549   ZZ=            -84.7703
   XY=             -8.5786   XZ=              2.3229   YZ=             -0.3637
 Traceless Quadrupole moment (field-independent basis, Debye-Ang):
   XX=            -19.0689   YY=             10.4921   ZZ=              8.5767
   XY=             -8.5786   XZ=              2.3229   YZ=             -0.3637
 Octapole moment (field-independent basis, Debye-Ang**2):
  XXX=             54.0495  YYY=             -2.3630  ZZZ=             -0.0265  XYY=              0.9863
  XXY=            -28.6302  XXZ=              7.8236  XZZ=             19.5860  YZZ=              3.3066
  YYZ=              0.9601  XYZ=             -1.7785
 Hexadecapole moment (field-independent basis, Debye-Ang**3):
 XXXX=          -5682.5656 YYYY=           -532.5874 ZZZZ=           -100.0816 XXXY=            -52.5734
 XXXZ=             23.8511 YYYX=            -25.5105 YYYZ=             -1.3259 ZZZX=              2.2807
 ZZZY=             -1.2448 XXYY=           -977.2155 XXZZ=           -962.4469 YYZZ=           -114.3274
 XXYZ=             -8.5247 YYXZ=              3.1741 ZZXY=              8.0771
 N-N= 6.873500159247D+02 E-N=-2.717576391710D+03  KE= 5.660334649901D+02
  Exact polarizability:     342.416      -6.855     129.735       0.081      -0.021      62.226
 Approx polarizability:     350.582      -3.759     176.136      -1.985      -0.288      83.473
   1 Symmetry operations used in ECPInt.
 ECPInt:  NShTT=    6216 NPrTT=   22568 LenC2=    5549 LenP2D=   14676.
 LDataN:  DoStor=T MaxTD1= 6 Len=  172
 Calling FoFJK, ICntrl=    100127 FMM=F ISym2X=0 I1Cent= 0 IOpClX= 0 NMat=1 NMatS=1 NMatT=0.
 Full mass-weighted force constant matrix:
 Low frequencies ---   -3.9599    0.0002    0.0006    0.0007    5.0684    8.8255
 Low frequencies ---   43.1242   59.7875   64.7174
 Diagonal vibrational polarizability:
      158.5006569      24.1996782     145.1304132
 Harmonic frequencies (cm**-1), IR intensities (KM/Mole), Raman scattering
 activities (A**4/AMU), depolarization ratios for plane and unpolarized
 incident light, reduced masses (AMU), force constants (mDyne/A),
 and normal coordinates:
                      1                      2                      3
                      A                      A                      A
 Frequencies --     43.1209                59.7127                64.6829
 Red. masses --      3.3168                 4.8293                 3.6097
 Frc consts  --      0.0036                 0.0101                 0.0089
 IR Inten    --      8.9223                 2.9321                 1.9755
  Atom  AN      X      Y      Z        X      Y      Z        X      Y      Z
     1   8     0.00  -0.01  -0.17    -0.19  -0.04  -0.03    -0.05   0.01   0.23
     2   6     0.00  -0.01  -0.08    -0.06  -0.04   0.00    -0.02   0.00   0.03
     3   7     0.01  -0.01   0.08     0.01   0.09   0.01     0.00   0.04  -0.08
     4   6    -0.04   0.03   0.27    -0.07   0.24  -0.03    -0.01   0.01   0.06
     5   6     0.00  -0.01  -0.12     0.01  -0.14   0.03     0.00  -0.02  -0.10
     6   7     0.00  -0.01  -0.13    -0.00  -0.19   0.03    -0.00  -0.04  -0.08
     7   6     0.00  -0.00  -0.11    -0.02  -0.16   0.02    -0.00  -0.04  -0.09
     8   6     0.00  -0.00  -0.05     0.01  -0.08   0.01     0.00  -0.02  -0.05
     9   6     0.00   0.00   0.00    -0.05   0.02  -0.04    -0.01   0.00   0.13
    10   6     0.00   0.00   0.10    -0.01   0.13  -0.06     0.00   0.03   0.19
    11   6     0.01   0.00   0.13     0.11   0.14  -0.02     0.03   0.03   0.05
    12   6     0.01   0.00   0.07     0.18   0.05   0.04     0.04   0.01  -0.14
    13   6     0.01  -0.00  -0.02     0.13  -0.06   0.05     0.03  -0.02  -0.19
    14   1    -0.03   0.04   0.26     0.11   0.10   0.06     0.02  -0.02  -0.32
    15   1     0.12  -0.12   0.56    -0.03   0.29  -0.02    -0.03   0.24  -0.08
    16   1    -0.32   0.24   0.37    -0.05   0.34  -0.03     0.03  -0.27   0.03
    17   1     0.04  -0.01   0.01    -0.19   0.20  -0.09    -0.07   0.07   0.36
    18   1     0.00  -0.01  -0.09     0.08  -0.13   0.03     0.02  -0.02  -0.16
    19   1    -0.00  -0.00  -0.11    -0.07  -0.17   0.01    -0.01  -0.04  -0.08
    20   1    -0.00   0.00  -0.02    -0.15   0.00  -0.08    -0.03  -0.00   0.25
    21   1     0.00   0.01   0.14    -0.07   0.20  -0.11    -0.01   0.04   0.35
    22   1     0.01   0.01   0.20     0.14   0.23  -0.03     0.03   0.05   0.09
    23   1     0.01   0.00   0.09     0.27   0.06   0.07     0.06   0.01  -0.25
    24   1     0.01  -0.00  -0.06     0.19  -0.14   0.09     0.04  -0.03  -0.33
                      4                      5                      6
                      A                      A                      A
 Frequencies --     92.6058               121.7790               183.3048
 Red. masses --      2.3347                 1.6410                 4.1457
 Frc consts  --      0.0118                 0.0143                 0.0821
 IR Inten    --      4.8263                 1.3216                 7.0655
  Atom  AN      X      Y      Z        X      Y      Z        X      Y      Z
     1   8    -0.01   0.00  -0.07    -0.01   0.01  -0.08    -0.01  -0.01  -0.08
     2   6    -0.00   0.00   0.05    -0.00   0.01  -0.07    -0.00  -0.00   0.02
     3   7    -0.01   0.01   0.24    -0.00   0.01  -0.05     0.01  -0.00  -0.21
     4   6     0.05  -0.01  -0.08    -0.01  -0.03   0.11    -0.03  -0.00   0.07
     5   6    -0.00  -0.00   0.03     0.00   0.01  -0.05     0.01  -0.00   0.32
     6   7    -0.00  -0.00  -0.06     0.00   0.00  -0.01     0.01   0.00   0.10
     7   6    -0.01  -0.00  -0.09     0.00  -0.00   0.07     0.01   0.01   0.03
     8   6    -0.00  -0.00  -0.08     0.00  -0.00   0.07     0.00   0.01  -0.14
     9   6    -0.01   0.00  -0.04     0.00  -0.00   0.03     0.01   0.00  -0.17
    10   6    -0.00   0.00   0.04     0.00   0.00  -0.04     0.01  -0.00   0.02
    11   6    -0.00   0.00   0.09     0.00   0.00  -0.06     0.00  -0.01   0.17
    12   6    -0.00   0.00   0.03     0.01  -0.00   0.01    -0.00   0.00   0.02
    13   6    -0.00  -0.00  -0.05     0.01  -0.00   0.07    -0.00   0.01  -0.16
    14   1     0.01  -0.02   0.12    -0.03  -0.01  -0.16     0.00   0.01  -0.13
    15   1    -0.18   0.25  -0.51    -0.05   0.36  -0.16     0.05   0.20   0.05
    16   1     0.47  -0.29  -0.25     0.12  -0.52   0.04    -0.13  -0.26   0.09
    17   1    -0.12   0.04   0.28    -0.12   0.07   0.63    -0.05   0.04   0.31
    18   1     0.00  -0.00   0.10     0.01   0.01  -0.02     0.00  -0.00   0.47
    19   1    -0.01  -0.00  -0.06     0.01  -0.00   0.10     0.00   0.01   0.14
    20   1    -0.01  -0.00  -0.07     0.00  -0.00   0.04     0.01   0.00  -0.23
    21   1    -0.00   0.00   0.07     0.00   0.00  -0.09     0.01  -0.01   0.06
    22   1    -0.00   0.00   0.16     0.00   0.00  -0.13     0.01  -0.01   0.36
    23   1     0.00   0.00   0.06     0.01  -0.00  -0.00    -0.01   0.00   0.08
    24   1    -0.00  -0.00  -0.07     0.01  -0.00   0.11    -0.01   0.01  -0.21
                      7                      8                      9
                      A                      A                      A
 Frequencies --    189.4161               268.8625               295.7090
 Red. masses --      4.5112                 6.1265                 4.3571
 Frc consts  --      0.0954                 0.2609                 0.2245
 IR Inten    --      2.6455                 2.7299                 2.1468
  Atom  AN      X      Y      Z        X      Y      Z        X      Y      Z
     1   8     0.06   0.18  -0.02     0.24   0.02  -0.00     0.00   0.00   0.03
     2   6    -0.05   0.18   0.00     0.16   0.02  -0.01    -0.00  -0.00  -0.07
     3   7    -0.13   0.04   0.01     0.21   0.05  -0.03    -0.01  -0.01   0.08
     4   6    -0.01  -0.19  -0.00     0.20   0.09   0.03    -0.00   0.00  -0.01
     5   6    -0.05   0.18   0.03     0.09   0.01  -0.00    -0.01  -0.00  -0.26
     6   7    -0.09   0.04   0.00     0.01  -0.12  -0.01     0.00   0.00   0.14
     7   6     0.00  -0.11   0.01    -0.05  -0.09   0.02     0.00   0.00   0.32
     8   6    -0.02  -0.16  -0.01    -0.13  -0.11   0.00     0.00   0.00   0.03
     9   6    -0.07  -0.08  -0.01    -0.24   0.00  -0.01     0.00   0.00  -0.17
    10   6    -0.02   0.04  -0.00    -0.22   0.09  -0.00     0.00  -0.00  -0.06
    11   6     0.09   0.06   0.01    -0.17   0.10   0.01     0.00  -0.00   0.17
    12   6     0.16  -0.03   0.00    -0.10  -0.00   0.00     0.00  -0.00  -0.03
    13   6     0.10  -0.15  -0.01    -0.13  -0.10  -0.01    -0.00   0.00  -0.18
    14   1    -0.28   0.04  -0.03     0.26   0.04  -0.08    -0.02  -0.00   0.09
    15   1    -0.06  -0.42   0.05     0.22   0.13   0.04    -0.03  -0.01  -0.03
    16   1    -0.04  -0.19   0.01     0.17   0.06   0.04     0.04   0.04  -0.02
    17   1     0.23  -0.17  -0.08     0.19   0.09   0.06    -0.02  -0.00  -0.03
    18   1     0.03   0.19   0.05     0.18   0.02   0.02    -0.01   0.00  -0.49
    19   1     0.13  -0.10   0.02    -0.08  -0.10   0.05     0.01   0.00   0.33
    20   1    -0.17  -0.10  -0.01    -0.36  -0.02  -0.01     0.00   0.00  -0.29
    21   1    -0.09   0.12   0.00    -0.25   0.13  -0.00     0.00  -0.00  -0.11
    22   1     0.13   0.14   0.02    -0.14   0.17   0.02     0.01  -0.00   0.37
    23   1     0.26  -0.02   0.00     0.01   0.01   0.00    -0.00  -0.00  -0.06
    24   1     0.16  -0.24  -0.01    -0.11  -0.12  -0.01    -0.00   0.00  -0.30
                     10                     11                     12
                      A                      A                      A
 Frequencies --    301.0421               326.7631               419.1909
 Red. masses --      2.2633                 3.4439                 3.7086
 Frc consts  --      0.1209                 0.2167                 0.3840
 IR Inten    --     12.1396                22.6098                44.9367
  Atom  AN      X      Y      Z        X      Y      Z        X      Y      Z
     1   8     0.06  -0.01  -0.04     0.18  -0.07   0.06    -0.18  -0.11  -0.03
     2   6     0.01  -0.01  -0.00     0.01  -0.08   0.01     0.01  -0.10  -0.01
     3   7     0.00  -0.05  -0.02    -0.01  -0.13  -0.02     0.09   0.04   0.03
     4   6    -0.05   0.04  -0.00    -0.16   0.15  -0.03     0.14  -0.00   0.03
     5   6    -0.02   0.03  -0.02    -0.07   0.08   0.01    -0.06   0.01  -0.01
     6   7    -0.01   0.04   0.25    -0.06   0.15  -0.15     0.01   0.25   0.04
     7   6     0.00   0.01  -0.12     0.01   0.05   0.05     0.05   0.14  -0.01
     8   6    -0.01  -0.02  -0.01    -0.02  -0.06   0.01    -0.03  -0.09   0.00
     9   6    -0.01  -0.02   0.02    -0.03  -0.05  -0.00    -0.07  -0.07  -0.02
    10   6    -0.01   0.00   0.04    -0.01   0.01  -0.02    -0.05   0.02   0.02
    11   6     0.01   0.01  -0.02     0.04   0.01   0.00     0.02   0.03   0.00
    12   6     0.02  -0.01  -0.03     0.06  -0.02   0.02     0.05  -0.02  -0.03
    13   6     0.01  -0.02   0.00     0.03  -0.06  -0.00     0.00  -0.10   0.02
    14   1    -0.02   0.04   0.38     0.06  -0.07   0.24     0.22  -0.11  -0.57
    15   1    -0.03   0.20  -0.06    -0.09   0.41  -0.09     0.13  -0.11   0.07
    16   1    -0.02  -0.02  -0.02    -0.11   0.19  -0.04     0.11   0.05   0.04
    17   1    -0.18   0.04   0.11    -0.47   0.10   0.05     0.23  -0.00  -0.06
    18   1    -0.04   0.03  -0.52    -0.18   0.06   0.24    -0.29  -0.02   0.00
    19   1     0.03   0.01  -0.61     0.15   0.06   0.32     0.25   0.16  -0.10
    20   1    -0.03  -0.02   0.04    -0.06  -0.06  -0.01    -0.15  -0.08  -0.05
    21   1    -0.02   0.02   0.08    -0.04   0.05  -0.04    -0.09   0.08   0.05
    22   1     0.01   0.02  -0.04     0.06   0.04   0.01     0.04   0.08   0.01
    23   1     0.03  -0.00  -0.08     0.10  -0.01   0.04     0.13  -0.01  -0.06
    24   1     0.02  -0.04  -0.01     0.06  -0.11   0.01     0.04  -0.15   0.03
                     13                     14                     15
                      A                      A                      A
 Frequencies --    429.8214               454.2608               525.0110
 Red. masses --      3.0196                 1.4450                 5.3247
 Frc consts  --      0.3287                 0.1757                 0.8647
 IR Inten    --      0.1793                92.0476                11.5263
  Atom  AN      X      Y      Z        X      Y      Z        X      Y      Z
     1   8    -0.03  -0.01  -0.00    -0.10   0.01   0.03    -0.04   0.04  -0.00
     2   6     0.00  -0.01   0.00     0.00   0.02   0.02     0.02   0.03  -0.01
     3   7     0.01   0.00  -0.01     0.04  -0.03  -0.07    -0.13  -0.05   0.04
     4   6     0.02  -0.01   0.00     0.06  -0.03  -0.01    -0.21  -0.04  -0.02
     5   6    -0.00   0.00   0.00     0.03   0.00  -0.00     0.19  -0.04   0.00
     6   7     0.00   0.02   0.02     0.03   0.03  -0.05     0.26   0.04   0.01
     7   6     0.01   0.01  -0.02     0.03   0.02   0.02     0.26   0.02  -0.00
     8   6    -0.00  -0.01  -0.02     0.00  -0.02   0.00     0.14  -0.10  -0.01
     9   6    -0.00  -0.01   0.22    -0.02  -0.00  -0.01    -0.02   0.07  -0.00
    10   6    -0.01   0.00  -0.19    -0.02   0.01   0.01    -0.04   0.12   0.01
    11   6    -0.00   0.00  -0.01    -0.02   0.01   0.00    -0.19   0.10  -0.00
    12   6     0.01  -0.00   0.21    -0.00  -0.01  -0.01    -0.09  -0.06   0.01
    13   6    -0.00  -0.01  -0.21    -0.01  -0.02   0.02    -0.09  -0.13  -0.00
    14   1     0.00   0.02   0.08    -0.10   0.21   0.92    -0.19  -0.12  -0.29
    15   1     0.02  -0.01   0.00     0.06   0.01  -0.04    -0.19   0.00  -0.02
    16   1     0.02  -0.02   0.00     0.05  -0.12  -0.02    -0.19   0.05  -0.02
    17   1     0.03  -0.00   0.01     0.07  -0.01   0.07    -0.31  -0.07  -0.06
    18   1    -0.02  -0.00  -0.07     0.01   0.00  -0.03     0.20  -0.04   0.03
    19   1     0.03   0.02  -0.02     0.06   0.02   0.12     0.36   0.03  -0.02
    20   1    -0.01  -0.01   0.47    -0.05  -0.01  -0.03    -0.22   0.04   0.02
    21   1    -0.02   0.01  -0.42    -0.02   0.02   0.02     0.02   0.04   0.02
    22   1     0.00   0.01  -0.03    -0.01   0.02  -0.00    -0.19   0.11  -0.00
    23   1     0.02  -0.00   0.48     0.02  -0.00  -0.02     0.09  -0.04   0.02
    24   1    -0.00  -0.02  -0.40    -0.01  -0.02   0.03    -0.17  -0.01   0.01
                     16                     17                     18
                      A                      A                      A
 Frequencies --    532.5009               628.3020               650.7770
 Red. masses --      2.6312                 6.3372                 5.9569
 Frc consts  --      0.4396                 1.4740                 1.4864
 IR Inten    --      8.4156                 0.3491                22.1004
  Atom  AN      X      Y      Z        X      Y      Z        X      Y      Z
     1   8    -0.00   0.00  -0.01     0.01   0.00  -0.00     0.01   0.06   0.00
     2   6     0.00   0.00   0.03    -0.01   0.00   0.00     0.04   0.05  -0.01
     3   7    -0.00  -0.00  -0.01     0.00   0.01  -0.00    -0.06   0.01   0.02
     4   6    -0.00  -0.00  -0.00     0.01   0.00   0.00    -0.10  -0.03  -0.01
     5   6     0.00   0.00   0.04    -0.01  -0.01   0.00     0.19  -0.14   0.01
     6   7     0.00  -0.00  -0.05    -0.02  -0.03  -0.00     0.20  -0.06  -0.00
     7   6     0.00  -0.00  -0.11    -0.01  -0.02   0.00    -0.05   0.29  -0.00
     8   6     0.01  -0.00   0.26    -0.05  -0.13   0.00    -0.22   0.04   0.00
     9   6     0.00   0.00   0.05     0.14  -0.28  -0.00    -0.16  -0.22   0.00
    10   6    -0.00   0.00  -0.13     0.33   0.13  -0.00    -0.13  -0.13   0.00
    11   6    -0.00   0.00   0.18     0.06   0.12  -0.00     0.20  -0.06  -0.00
    12   6    -0.00  -0.00  -0.11    -0.14   0.32   0.00     0.08   0.12  -0.00
    13   6    -0.00  -0.00   0.01    -0.30  -0.09   0.00     0.01   0.06   0.00
    14   1    -0.00   0.00   0.01     0.01   0.01   0.02    -0.14   0.01  -0.02
    15   1    -0.00   0.00  -0.00     0.00  -0.01   0.00    -0.10  -0.02  -0.02
    16   1    -0.01  -0.00  -0.00     0.01  -0.01   0.00    -0.09  -0.01  -0.01
    17   1    -0.01  -0.00   0.00     0.03   0.01   0.01    -0.12  -0.04  -0.02
    18   1     0.01   0.00   0.12     0.00  -0.01  -0.00     0.29  -0.12  -0.01
    19   1     0.00  -0.00  -0.29     0.00  -0.03   0.00    -0.20   0.26   0.01
    20   1    -0.01   0.00  -0.31    -0.02  -0.30   0.00    -0.03  -0.21  -0.00
    21   1    -0.01   0.00  -0.52     0.22   0.26  -0.00    -0.33   0.12   0.00
    22   1    -0.00   0.00   0.15    -0.12  -0.29   0.00     0.23  -0.01  -0.00
    23   1    -0.01  -0.00  -0.49     0.04   0.34  -0.00    -0.08   0.10  -0.00
    24   1    -0.01   0.00  -0.35    -0.21  -0.21   0.00     0.18  -0.17  -0.00
                     19                     20                     21
                      A                      A                      A
 Frequencies --    718.8817               735.7728               750.8131
 Red. masses --      1.4955                 1.4091                 2.8628
 Frc consts  --      0.4554                 0.4495                 0.9508
 IR Inten    --     35.0735                 2.7289                18.5125
  Atom  AN      X      Y      Z        X      Y      Z        X      Y      Z
     1   8    -0.00   0.00   0.01    -0.04   0.02   0.03     0.14  -0.05  -0.01
     2   6     0.00   0.00  -0.03     0.03   0.01  -0.08    -0.11  -0.04   0.06
     3   7     0.00  -0.01   0.01     0.03  -0.05   0.01    -0.10   0.19  -0.04
     4   6     0.00  -0.00  -0.00     0.00  -0.01  -0.00     0.00   0.03  -0.00
     5   6     0.00   0.01  -0.02     0.01   0.05  -0.08    -0.06  -0.18  -0.07
     6   7    -0.00  -0.00   0.01    -0.01  -0.01   0.04     0.03   0.03   0.01
     7   6    -0.00  -0.00   0.01    -0.00  -0.02   0.03     0.01   0.07   0.02
     8   6    -0.00   0.00  -0.05    -0.01   0.00   0.04     0.02  -0.01   0.04
     9   6     0.00  -0.00   0.04    -0.00  -0.00  -0.03     0.01   0.01  -0.03
    10   6    -0.00  -0.00  -0.13    -0.00  -0.01   0.03     0.02   0.02   0.01
    11   6     0.00  -0.00   0.05     0.01  -0.00  -0.04    -0.03   0.02  -0.04
    12   6    -0.00   0.00  -0.12    -0.00   0.01   0.04     0.01  -0.05   0.02
    13   6     0.00   0.00   0.05    -0.00   0.01  -0.04     0.00  -0.04  -0.03
    14   1    -0.01  -0.00   0.02    -0.02  -0.04   0.05    -0.01   0.26   0.27
    15   1     0.00   0.01  -0.00     0.04   0.06  -0.00    -0.14  -0.24  -0.02
    16   1     0.00   0.01  -0.00     0.01   0.07  -0.00    -0.00  -0.25  -0.02
    17   1    -0.01  -0.00  -0.00    -0.10  -0.03  -0.02     0.40   0.12   0.09
    18   1     0.00   0.00   0.16     0.04   0.04   0.82    -0.16  -0.20   0.42
    19   1    -0.00  -0.00  -0.11    -0.02  -0.02  -0.49     0.03   0.08  -0.31
    20   1     0.01  -0.00   0.48     0.00  -0.00  -0.05    -0.02   0.01   0.00
    21   1     0.00  -0.00   0.21    -0.01   0.00   0.07     0.04  -0.01   0.12
    22   1     0.01  -0.00   0.69     0.00  -0.01  -0.04    -0.02   0.03   0.10
    23   1     0.00   0.00   0.16    -0.02   0.01   0.05     0.08  -0.04   0.09
    24   1     0.01   0.00   0.38     0.00   0.01  -0.10    -0.02  -0.02  -0.04
                     22                     23                     24
                      A                      A                      A
 Frequencies --    763.2689               777.4147               851.8069
 Red. masses --      4.6341                 2.4775                 1.3998
 Frc consts  --      1.5906                 0.8822                 0.5984
 IR Inten    --     27.6655                 1.2104                 8.1544
  Atom  AN      X      Y      Z        X      Y      Z        X      Y      Z
     1   8    -0.05   0.01  -0.14     0.00  -0.00   0.05    -0.00  -0.00   0.00
     2   6     0.03   0.02   0.46     0.00  -0.00  -0.17     0.00  -0.00  -0.01
     3   7     0.03  -0.07  -0.09    -0.00   0.01   0.04     0.00  -0.00   0.00
     4   6    -0.02  -0.01  -0.00     0.01   0.00   0.00     0.00   0.00   0.00
     5   6     0.03   0.06  -0.13    -0.00  -0.00   0.13     0.00   0.00   0.06
     6   7    -0.00  -0.01  -0.05    -0.00   0.00  -0.04    -0.00   0.00  -0.08
     7   6     0.01  -0.02   0.03    -0.00   0.00  -0.05     0.00  -0.00   0.09
     8   6    -0.01   0.00   0.15     0.00  -0.00   0.20     0.00  -0.00   0.01
     9   6    -0.01  -0.01  -0.07     0.00   0.00  -0.06    -0.00   0.00  -0.09
    10   6    -0.01  -0.01   0.01     0.00   0.00   0.02    -0.00  -0.00  -0.05
    11   6     0.01  -0.01  -0.12    -0.00   0.00  -0.15     0.00  -0.00   0.03
    12   6    -0.00   0.02   0.02     0.00  -0.00   0.03     0.00   0.00   0.06
    13   6    -0.00   0.02  -0.06    -0.00  -0.00  -0.07     0.00   0.00   0.03
    14   1     0.10  -0.11  -0.22    -0.03   0.00   0.02    -0.00  -0.00  -0.01
    15   1     0.04   0.09   0.02    -0.00  -0.01  -0.00    -0.00   0.00  -0.00
    16   1    -0.06   0.04   0.02     0.02   0.01  -0.00     0.00   0.00   0.00
    17   1    -0.13  -0.04  -0.02     0.01   0.00  -0.00    -0.00  -0.00  -0.00
    18   1     0.08   0.07  -0.09    -0.01  -0.00  -0.39     0.00   0.00  -0.23
    19   1    -0.01  -0.02  -0.21    -0.00   0.00   0.03    -0.01  -0.00  -0.44
    20   1     0.00  -0.01  -0.01    -0.00   0.00  -0.17     0.01  -0.00   0.59
    21   1    -0.02   0.00   0.39     0.01  -0.00   0.40     0.00  -0.00   0.34
    22   1     0.02  -0.01   0.49     0.01   0.00   0.59    -0.00  -0.00  -0.23
    23   1    -0.03   0.02   0.34     0.01  -0.00   0.39    -0.01   0.00  -0.38
    24   1     0.01   0.01  -0.08    -0.00  -0.00  -0.16    -0.00   0.00  -0.26
                     25                     26                     27
                      A                      A                      A
 Frequencies --    864.1655               871.9734               916.0507
 Red. masses --      4.0254                 1.4804                 1.6176
 Frc consts  --      1.7711                 0.6632                 0.7998
 IR Inten    --      6.2233                15.1061                14.7518
  Atom  AN      X      Y      Z        X      Y      Z        X      Y      Z
     1   8    -0.02   0.08  -0.00     0.00   0.00   0.00    -0.00  -0.00  -0.00
     2   6     0.02   0.05   0.01    -0.00   0.00   0.00     0.00  -0.00   0.00
     3   7     0.04  -0.08   0.00    -0.00   0.00  -0.00    -0.00   0.00   0.00
     4   6     0.02  -0.02   0.00    -0.00   0.00  -0.00    -0.00   0.00   0.00
     5   6     0.01  -0.05  -0.00    -0.00  -0.00  -0.07     0.00   0.00   0.01
     6   7    -0.01  -0.07   0.00     0.00   0.00   0.09    -0.00   0.00  -0.02
     7   6    -0.19   0.23   0.00    -0.00  -0.00  -0.13     0.00  -0.00   0.07
     8   6    -0.08   0.04   0.00     0.00  -0.00   0.03    -0.00   0.00  -0.13
     9   6     0.08   0.04  -0.00    -0.00  -0.00  -0.05     0.00  -0.00   0.10
    10   6     0.16   0.11  -0.00    -0.00  -0.00  -0.05    -0.00  -0.00  -0.01
    11   6    -0.09   0.06   0.00     0.00  -0.00  -0.02    -0.00   0.00  -0.09
    12   6     0.06  -0.23   0.00     0.00   0.00   0.06     0.00   0.00   0.06
    13   6    -0.01  -0.18   0.00     0.00   0.00   0.05     0.00  -0.00   0.10
    14   1    -0.02  -0.09  -0.08    -0.00   0.00   0.02     0.00  -0.00  -0.00
    15   1     0.10   0.15   0.01    -0.00  -0.00  -0.00    -0.00  -0.00   0.00
    16   1     0.02   0.13   0.01    -0.00  -0.00  -0.00    -0.00   0.00   0.00
    17   1    -0.19  -0.06  -0.04     0.00   0.00   0.00    -0.00  -0.00  -0.00
    18   1     0.10  -0.03  -0.00    -0.00  -0.00   0.24     0.00   0.00  -0.05
    19   1    -0.50   0.21   0.02     0.01  -0.00   0.66    -0.00   0.00  -0.18
    20   1     0.07   0.05   0.01     0.00  -0.00   0.26    -0.01   0.00  -0.43
    21   1     0.28  -0.04   0.00     0.00  -0.00   0.35    -0.00  -0.00  -0.03
    22   1    -0.06   0.10   0.00     0.00  -0.00   0.07     0.01  -0.00   0.55
    23   1     0.36  -0.20  -0.01    -0.01   0.00  -0.35    -0.01   0.00  -0.42
    24   1     0.00  -0.21  -0.01    -0.01   0.00  -0.38    -0.01  -0.00  -0.49
                     28                     29                     30
                      A                      A                      A
 Frequencies --    984.2256               995.3338               996.1634
 Red. masses --      3.3220                 1.3148                 5.1642
 Frc consts  --      1.8960                 0.7675                 3.0193
 IR Inten    --    118.9255                 0.1826               126.6938
  Atom  AN      X      Y      Z        X      Y      Z        X      Y      Z
     1   8    -0.04  -0.18   0.00    -0.00   0.00  -0.00     0.00  -0.01   0.00
     2   6     0.17  -0.10  -0.00     0.00   0.00   0.00    -0.02  -0.01  -0.00
     3   7    -0.03   0.12   0.01    -0.00  -0.00  -0.00     0.00   0.01   0.00
     4   6    -0.13   0.03  -0.03     0.00  -0.00   0.00    -0.00   0.00   0.00
     5   6     0.11   0.25  -0.00    -0.00  -0.00   0.00     0.02   0.01  -0.00
     6   7     0.01  -0.04   0.00     0.00   0.00  -0.00    -0.01  -0.00   0.00
     7   6    -0.06   0.01   0.00    -0.00  -0.00   0.01     0.02   0.01  -0.00
     8   6    -0.05   0.03   0.00     0.00  -0.00  -0.00    -0.01   0.01   0.00
     9   6     0.01  -0.01  -0.00     0.00  -0.00   0.09     0.01   0.36   0.00
    10   6     0.04   0.02  -0.00    -0.00   0.00  -0.13    -0.08  -0.09  -0.00
    11   6    -0.01   0.01   0.00    -0.00   0.00   0.05     0.27  -0.10  -0.00
    12   6     0.01  -0.05  -0.00     0.00  -0.00   0.01     0.01   0.11   0.00
    13   6     0.00  -0.02  -0.00     0.00   0.00  -0.03    -0.25  -0.27   0.00
    14   1     0.08   0.14   0.10    -0.00  -0.00  -0.00     0.04   0.00  -0.00
    15   1    -0.30  -0.38  -0.01     0.00   0.00   0.00    -0.02  -0.02  -0.00
    16   1    -0.17  -0.36  -0.04    -0.00   0.00   0.00     0.02  -0.01  -0.00
    17   1     0.33   0.12   0.07    -0.00  -0.00  -0.00     0.02   0.00  -0.00
    18   1     0.30   0.28   0.00    -0.00  -0.00  -0.00     0.04   0.02   0.00
    19   1    -0.25  -0.01   0.00     0.00  -0.00  -0.04    -0.05   0.00   0.00
    20   1     0.03  -0.00  -0.00    -0.01  -0.00  -0.52     0.27   0.40  -0.03
    21   1     0.05   0.00   0.00     0.01   0.00   0.76     0.01  -0.18   0.03
    22   1    -0.01   0.01  -0.00    -0.01   0.00  -0.32     0.28  -0.09  -0.02
    23   1     0.06  -0.04  -0.00    -0.00  -0.00   0.00     0.15   0.11  -0.00
    24   1     0.03  -0.06  -0.00     0.00   0.00   0.16    -0.13  -0.45   0.01
                     31                     32                     33
                      A                      A                      A
 Frequencies --   1023.6835              1051.9468              1091.0876
 Red. masses --      1.3136                 2.0136                 1.4567
 Frc consts  --      0.8110                 1.3128                 1.0217
 IR Inten    --      1.2578                 9.7543                 7.2155
  Atom  AN      X      Y      Z        X      Y      Z        X      Y      Z
     1   8    -0.00  -0.00  -0.00    -0.00   0.00  -0.00     0.00  -0.01   0.00
     2   6    -0.00   0.00   0.00     0.00   0.00   0.00    -0.03  -0.00  -0.00
     3   7     0.00  -0.00  -0.00     0.00   0.00   0.00    -0.01  -0.01  -0.00
     4   6    -0.00   0.00   0.00    -0.00  -0.00  -0.00     0.01   0.01   0.01
     5   6     0.00   0.00  -0.00     0.00  -0.00  -0.00    -0.01   0.02   0.00
     6   7    -0.00  -0.00   0.00     0.00   0.01  -0.00    -0.00  -0.02   0.00
     7   6    -0.00   0.00  -0.01     0.00  -0.01  -0.00     0.01  -0.00  -0.00
     8   6     0.00   0.00   0.02     0.00   0.00  -0.00     0.05   0.04  -0.00
     9   6     0.00  -0.00   0.00    -0.06   0.02   0.00     0.06  -0.08  -0.00
    10   6     0.00   0.00   0.01     0.08   0.13  -0.00    -0.07  -0.04   0.00
    11   6    -0.00   0.00  -0.04     0.17  -0.06  -0.00     0.03   0.08  -0.00
    12   6     0.00  -0.00   0.11    -0.05  -0.15   0.00     0.01  -0.05  -0.00
    13   6    -0.00   0.00  -0.11    -0.06   0.03   0.00    -0.08  -0.01   0.00
    14   1     0.00   0.00   0.00    -0.00   0.00  -0.00     0.02  -0.02  -0.00
    15   1    -0.00  -0.00  -0.00     0.00   0.00  -0.00     0.01   0.00  -0.00
    16   1     0.00  -0.00  -0.00    -0.00   0.00   0.00     0.03   0.01  -0.00
    17   1     0.00   0.00  -0.00    -0.00  -0.00  -0.00     0.03   0.01  -0.00
    18   1     0.00   0.00  -0.00    -0.00  -0.00  -0.00     0.04   0.03  -0.00
    19   1     0.00  -0.00   0.01     0.02  -0.01  -0.00    -0.05  -0.01   0.00
    20   1     0.00  -0.00  -0.00    -0.42  -0.02   0.01     0.46  -0.05  -0.01
    21   1    -0.00   0.00  -0.08    -0.16   0.46   0.00    -0.22   0.13   0.00
    22   1     0.00   0.00   0.22     0.20  -0.04  -0.00     0.23   0.56  -0.00
    23   1    -0.01   0.00  -0.67    -0.45  -0.21   0.01     0.23  -0.03  -0.00
    24   1     0.01   0.00   0.69    -0.30   0.35   0.00    -0.36   0.35   0.00
                     34                     35                     36
                      A                      A                      A
 Frequencies --   1123.3227              1134.7260              1145.1334
 Red. masses --      2.3235                 1.3817                 1.0747
 Frc consts  --      1.7275                 1.0482                 0.8303
 IR Inten    --    544.7847                 4.5709                 4.2602
  Atom  AN      X      Y      Z        X      Y      Z        X      Y      Z
     1   8    -0.02   0.03  -0.00    -0.01   0.06   0.00     0.00   0.00  -0.00
     2   6     0.24   0.01   0.02    -0.03   0.02  -0.01     0.00  -0.00   0.00
     3   7     0.05   0.12   0.04     0.04  -0.07   0.06     0.00   0.00   0.00
     4   6    -0.06  -0.09  -0.07    -0.04   0.04  -0.11    -0.00  -0.00  -0.00
     5   6    -0.03  -0.09  -0.00    -0.01  -0.03   0.00     0.00  -0.00  -0.00
     6   7    -0.02   0.05  -0.00    -0.01   0.01  -0.00    -0.00   0.00   0.00
     7   6    -0.05  -0.05   0.00     0.00   0.00   0.00     0.00  -0.00  -0.00
     8   6     0.02  -0.01  -0.00     0.00  -0.00   0.00    -0.01  -0.00   0.00
     9   6     0.00   0.01  -0.00     0.00   0.00  -0.00    -0.00  -0.01   0.00
    10   6    -0.01  -0.02   0.00    -0.00  -0.00   0.00     0.03  -0.03  -0.00
    11   6     0.01   0.01  -0.00     0.00  -0.00   0.00     0.02   0.05  -0.00
    12   6     0.01   0.00  -0.00     0.00   0.00   0.00    -0.04  -0.00   0.00
    13   6    -0.03   0.01   0.00     0.00   0.00  -0.00    -0.00  -0.00  -0.00
    14   1    -0.33   0.14   0.02     0.51  -0.10   0.02     0.00   0.00   0.00
    15   1     0.14   0.12   0.08     0.20  -0.09   0.26     0.00   0.00   0.00
    16   1    -0.43  -0.07   0.05    -0.47  -0.43   0.01    -0.01  -0.00   0.00
    17   1    -0.33  -0.10   0.06     0.31   0.17   0.23    -0.00  -0.00   0.00
    18   1    -0.53  -0.20   0.00     0.02  -0.02   0.00    -0.01  -0.00   0.00
    19   1    -0.05  -0.05  -0.00     0.03   0.00  -0.00     0.02  -0.00  -0.00
    20   1     0.05   0.01  -0.00     0.00   0.00   0.00    -0.18  -0.03   0.00
    21   1     0.03  -0.06  -0.00    -0.01   0.00   0.00     0.30  -0.39  -0.00
    22   1     0.04   0.08  -0.00    -0.00  -0.00  -0.00     0.25   0.60  -0.00
    23   1     0.13   0.02  -0.00     0.00   0.00   0.00    -0.48  -0.05   0.01
    24   1    -0.14   0.16   0.00    -0.01   0.01   0.00     0.14  -0.19  -0.00
                     37                     38                     39
                      A                      A                      A
 Frequencies --   1158.2594              1165.2661              1206.3536
 Red. masses --      1.6485                 1.1663                 2.1742
 Frc consts  --      1.3031                 0.9331                 1.8642
 IR Inten    --      5.5790               181.8889               974.4631
  Atom  AN      X      Y      Z        X      Y      Z        X      Y      Z
     1   8     0.02  -0.08   0.00     0.00   0.01   0.00    -0.02   0.03  -0.00
     2   6    -0.07  -0.02   0.01     0.01  -0.00   0.00     0.13   0.00   0.01
     3   7    -0.10   0.04   0.03     0.02   0.02   0.00    -0.13  -0.13  -0.01
     4   6     0.13  -0.02  -0.09    -0.02  -0.02  -0.01     0.09   0.17   0.01
     5   6     0.01   0.07  -0.00     0.01  -0.02  -0.00    -0.03   0.01  -0.00
     6   7     0.02  -0.03  -0.00    -0.02   0.01   0.00     0.04  -0.03  -0.00
     7   6     0.01   0.02   0.00     0.02  -0.02  -0.00    -0.02   0.01   0.00
     8   6     0.01   0.01   0.00    -0.04   0.01   0.00     0.06  -0.01  -0.00
     9   6    -0.00  -0.00  -0.00     0.05  -0.00  -0.00     0.01  -0.00  -0.00
    10   6    -0.00   0.00   0.00    -0.01   0.05   0.00    -0.02  -0.00   0.00
    11   6    -0.00  -0.00   0.00    -0.02   0.01   0.00     0.00   0.00  -0.00
    12   6    -0.00   0.00   0.00    -0.04  -0.03   0.00    -0.01   0.01   0.00
    13   6     0.01  -0.01  -0.00     0.03  -0.02  -0.00     0.01  -0.02  -0.00
    14   1    -0.35   0.04  -0.03     0.03   0.03   0.01    -0.52  -0.14  -0.09
    15   1     0.56   0.39   0.23    -0.00   0.01  -0.00    -0.05  -0.17   0.05
    16   1    -0.41   0.04   0.09    -0.03   0.01   0.00     0.09  -0.16  -0.02
    17   1    -0.17  -0.01   0.18    -0.06  -0.03  -0.01     0.38   0.22   0.05
    18   1     0.19   0.10   0.01    -0.05  -0.02   0.00    -0.46  -0.08  -0.00
    19   1    -0.03   0.02  -0.00     0.11  -0.02  -0.00    -0.20  -0.01   0.00
    20   1    -0.02  -0.00   0.00     0.56   0.06  -0.01     0.04  -0.00  -0.00
    21   1    -0.03   0.03   0.00    -0.28   0.39   0.00    -0.12   0.12   0.00
    22   1    -0.01  -0.03   0.00    -0.01   0.02   0.00    -0.00  -0.01   0.00
    23   1    -0.04  -0.00   0.00    -0.42  -0.07   0.01    -0.16  -0.00   0.00
    24   1     0.05  -0.06  -0.00     0.29  -0.38  -0.00     0.09  -0.13  -0.00
                     40                     41                     42
                      A                      A                      A
 Frequencies --   1247.3122              1308.4642              1316.1416
 Red. masses --      1.8743                 1.6724                 2.0712
 Frc consts  --      1.7181                 1.6870                 2.1139
 IR Inten    --     68.0337                74.0238               106.7587
  Atom  AN      X      Y      Z        X      Y      Z        X      Y      Z
     1   8     0.00  -0.00   0.00     0.00   0.00   0.00     0.00   0.01  -0.00
     2   6    -0.03   0.01  -0.00    -0.01  -0.00  -0.00    -0.02  -0.01   0.00
     3   7     0.05   0.03   0.00     0.02   0.01   0.00    -0.02  -0.01  -0.00
     4   6    -0.03  -0.05   0.00    -0.01  -0.02  -0.00     0.01   0.01  -0.00
     5   6    -0.06   0.03   0.00    -0.05   0.08   0.00     0.08  -0.05  -0.00
     6   7     0.01  -0.03  -0.00     0.01  -0.15  -0.00    -0.01   0.13   0.00
     7   6    -0.00   0.07   0.00     0.06   0.06  -0.00     0.04  -0.15  -0.00
     8   6     0.21   0.01  -0.00    -0.01   0.10   0.00    -0.04   0.16   0.00
     9   6     0.04  -0.03  -0.00     0.00  -0.01  -0.00    -0.01  -0.02   0.00
    10   6    -0.06  -0.05   0.00     0.02  -0.02  -0.00     0.05  -0.04  -0.00
    11   6    -0.01   0.00   0.00     0.00  -0.01  -0.00     0.00  -0.01  -0.00
    12   6    -0.04   0.05   0.00    -0.03  -0.03   0.00    -0.05  -0.06   0.00
    13   6     0.03  -0.06  -0.00    -0.03   0.02   0.00    -0.05   0.03   0.00
    14   1     0.21   0.04   0.04     0.08   0.02   0.02    -0.04  -0.01  -0.01
    15   1    -0.02   0.03  -0.04    -0.00   0.01  -0.01     0.03   0.01   0.02
    16   1    -0.02   0.04   0.01    -0.01   0.01   0.00     0.02   0.00  -0.00
    17   1    -0.10  -0.07  -0.03    -0.03  -0.02  -0.00     0.03   0.02   0.01
    18   1    -0.11   0.03  -0.00    -0.54  -0.02  -0.00     0.08  -0.03   0.00
    19   1    -0.68   0.02   0.01     0.59   0.09  -0.01    -0.36  -0.17   0.01
    20   1    -0.40  -0.09   0.01    -0.26  -0.04   0.00    -0.32  -0.06   0.00
    21   1    -0.29   0.23   0.00    -0.08   0.10   0.00    -0.12   0.19   0.00
    22   1    -0.02  -0.01   0.00     0.05   0.10  -0.00     0.09   0.18  -0.00
    23   1    -0.19   0.04   0.00     0.32   0.00  -0.00     0.52   0.00  -0.01
    24   1     0.11  -0.16  -0.00     0.16  -0.24  -0.00     0.28  -0.42  -0.00
                     43                     44                     45
                      A                      A                      A
 Frequencies --   1347.4936              1374.4628              1410.9573
 Red. masses --      1.5304                 3.6326                 1.1941
 Frc consts  --      1.6372                 4.0432                 1.4006
 IR Inten    --     86.0287                19.0179                35.7205
  Atom  AN      X      Y      Z        X      Y      Z        X      Y      Z
     1   8    -0.01   0.00  -0.00    -0.01   0.01  -0.00    -0.00  -0.01  -0.00
     2   6     0.07   0.00   0.00     0.05  -0.00   0.00     0.03   0.02   0.00
     3   7     0.01  -0.01   0.00     0.02  -0.00   0.00    -0.01  -0.01   0.00
     4   6     0.00   0.03  -0.00     0.01   0.03  -0.00    -0.09  -0.07   0.00
     5   6    -0.04  -0.06  -0.00    -0.05  -0.05  -0.00     0.00  -0.01  -0.00
     6   7    -0.08   0.00   0.00    -0.05   0.00   0.00    -0.01   0.01  -0.00
     7   6    -0.07   0.05   0.00    -0.02   0.01   0.00    -0.03   0.00   0.00
     8   6     0.06  -0.04  -0.00     0.11   0.20  -0.00     0.02   0.00  -0.00
     9   6     0.10   0.02  -0.00    -0.18  -0.04   0.00    -0.00   0.00   0.00
    10   6    -0.02  -0.01   0.00     0.06  -0.14  -0.00     0.01  -0.02  -0.00
    11   6    -0.03  -0.07   0.00     0.09   0.23  -0.00     0.00   0.01  -0.00
    12   6     0.01   0.03  -0.00    -0.14  -0.03   0.00    -0.01   0.00   0.00
    13   6    -0.02   0.03   0.00     0.11  -0.17  -0.00     0.01  -0.01  -0.00
    14   1    -0.21  -0.00  -0.03    -0.17  -0.00  -0.02    -0.03  -0.01  -0.00
    15   1    -0.05  -0.11   0.01    -0.06  -0.14   0.01     0.17   0.55  -0.04
    16   1    -0.03  -0.09  -0.00    -0.04  -0.11   0.00     0.14   0.31  -0.05
    17   1    -0.04   0.02  -0.01    -0.11   0.01  -0.01     0.71   0.07   0.01
    18   1     0.63   0.04   0.00     0.46   0.03  -0.00     0.03  -0.01   0.00
    19   1     0.45   0.10  -0.01     0.45   0.06  -0.01     0.10   0.01  -0.00
    20   1    -0.31  -0.02   0.00     0.12  -0.01  -0.00    -0.02   0.00   0.00
    21   1    -0.20   0.22   0.00    -0.01  -0.05   0.00    -0.03   0.03   0.00
    22   1     0.09   0.23  -0.00    -0.19  -0.43   0.00    -0.00   0.00   0.00
    23   1     0.09   0.04  -0.00    -0.11  -0.02   0.00    -0.01   0.01   0.00
    24   1     0.09  -0.13  -0.00    -0.08   0.09   0.00    -0.00   0.01   0.00
                     46                     47                     48
                      A                      A                      A
 Frequencies --   1463.9543              1478.8362              1486.8643
 Red. masses --      1.4637                 1.1344                 2.1999
 Frc consts  --      1.8482                 1.4617                 2.8655
 IR Inten    --   1071.6020                18.5302                16.7916
  Atom  AN      X      Y      Z        X      Y      Z        X      Y      Z
     1   8    -0.01   0.02   0.00    -0.00   0.00  -0.00     0.01  -0.01   0.00
     2   6     0.06  -0.01  -0.01     0.01  -0.01  -0.00    -0.04   0.01  -0.00
     3   7    -0.10  -0.00  -0.01    -0.03  -0.00  -0.01     0.01   0.01   0.00
     4   6     0.10  -0.02   0.04     0.00  -0.02  -0.05    -0.02   0.02   0.01
     5   6    -0.02   0.00   0.00     0.04   0.00   0.00     0.05   0.02  -0.00
     6   7     0.05   0.01  -0.00    -0.01   0.00   0.00     0.03   0.01  -0.00
     7   6    -0.06  -0.01   0.00    -0.03   0.00   0.00    -0.05   0.01   0.00
     8   6     0.01  -0.02  -0.00    -0.01  -0.01   0.00    -0.05  -0.09   0.00
     9   6    -0.03   0.02   0.00     0.00   0.02  -0.00    -0.06   0.09   0.00
    10   6     0.03  -0.02  -0.00     0.03  -0.03  -0.00     0.14  -0.11  -0.00
    11   6    -0.00  -0.01   0.00    -0.02  -0.00   0.00    -0.05  -0.05   0.00
    12   6    -0.03   0.01   0.00    -0.02   0.02   0.00    -0.11   0.07   0.00
    13   6     0.01   0.00  -0.00     0.03  -0.02  -0.00     0.13  -0.05  -0.00
    14   1     0.51  -0.01   0.07     0.13   0.00   0.02    -0.02   0.01  -0.00
    15   1    -0.28   0.16  -0.50    -0.01  -0.34   0.14     0.17   0.09   0.19
    16   1    -0.47   0.18   0.21     0.16   0.52  -0.04     0.19  -0.34  -0.08
    17   1     0.00  -0.06  -0.07    -0.09   0.12   0.69    -0.09  -0.07  -0.33
    18   1     0.02   0.00  -0.00    -0.07  -0.02   0.00    -0.18  -0.01   0.00
    19   1     0.09   0.00  -0.00     0.05   0.01  -0.00    -0.00   0.01  -0.00
    20   1     0.06   0.03  -0.00    -0.04   0.02   0.00     0.02   0.12  -0.00
    21   1    -0.04   0.08   0.00    -0.07   0.10   0.00    -0.22   0.38   0.00
    22   1     0.04   0.08  -0.00     0.01   0.07  -0.00     0.13   0.40  -0.00
    23   1     0.07   0.02  -0.00    -0.00   0.03   0.00     0.16   0.12  -0.00
    24   1     0.03  -0.01  -0.00    -0.04   0.08   0.00    -0.09   0.28   0.00
                     49                     50                     51
                      A                      A                      A
 Frequencies --   1498.4916              1520.4461              1559.3763
 Red. masses --      2.7101                 1.4449                 5.4324
 Frc consts  --      3.5855                 1.9680                 7.7829
 IR Inten    --   1169.5923               755.6658               933.4005
  Atom  AN      X      Y      Z        X      Y      Z        X      Y      Z
     1   8     0.00   0.02   0.00    -0.01   0.00   0.00     0.01  -0.05   0.00
     2   6    -0.02  -0.04  -0.00     0.07  -0.00  -0.00    -0.07   0.10   0.00
     3   7    -0.06   0.00   0.00    -0.12   0.02  -0.02     0.11  -0.01   0.01
     4   6     0.04   0.01   0.02    -0.01  -0.01   0.01    -0.03   0.00  -0.01
     5   6     0.21  -0.01  -0.00    -0.01  -0.00   0.00    -0.22   0.05   0.00
     6   7    -0.13   0.01   0.00     0.04   0.02  -0.00     0.34   0.06  -0.01
     7   6     0.01  -0.01  -0.00    -0.08  -0.03   0.00    -0.17  -0.16   0.00
     8   6    -0.08   0.09   0.00     0.04   0.01  -0.00    -0.10   0.09   0.00
     9   6     0.16   0.01  -0.00     0.01  -0.01  -0.00     0.06   0.04  -0.00
    10   6    -0.04  -0.07   0.00    -0.03   0.01   0.00     0.06  -0.13  -0.00
    11   6    -0.05   0.07   0.00     0.02   0.02  -0.00    -0.09   0.06   0.00
    12   6     0.12   0.03  -0.00     0.02  -0.02  -0.00     0.23   0.01  -0.00
    13   6     0.01  -0.11  -0.00    -0.04   0.02   0.00    -0.09  -0.04   0.00
    14   1     0.11  -0.00   0.01     0.51   0.02   0.08    -0.23  -0.01  -0.03
    15   1    -0.02   0.11  -0.12     0.35   0.07   0.39    -0.10  -0.10  -0.04
    16   1    -0.12  -0.11   0.06     0.48  -0.16  -0.15    -0.08   0.02   0.01
    17   1    -0.01  -0.04  -0.19    -0.24  -0.09  -0.17     0.02   0.03   0.08
    18   1    -0.31  -0.08   0.00    -0.01  -0.01  -0.00     0.09   0.08  -0.00
    19   1     0.17  -0.00  -0.00     0.15  -0.00  -0.00     0.22  -0.11  -0.00
    20   1    -0.47  -0.07   0.01    -0.00  -0.02   0.00    -0.27   0.02   0.00
    21   1    -0.19   0.09   0.00     0.02  -0.06  -0.00    -0.24   0.23   0.00
    22   1    -0.15  -0.13   0.00    -0.03  -0.10   0.00    -0.16  -0.05   0.00
    23   1    -0.42  -0.03   0.01    -0.04  -0.03   0.00    -0.47  -0.07   0.01
    24   1    -0.26   0.24   0.00     0.04  -0.10  -0.00    -0.16  -0.00   0.00
                     52                     53                     54
                      A                      A                      A
 Frequencies --   1584.7500              1639.8020              1693.6061
 Red. masses --      4.4504                 6.0438                 6.7401
 Frc consts  --      6.5852                 9.5751                11.3904
 IR Inten    --      3.9060                11.0689                56.1914
  Atom  AN      X      Y      Z        X      Y      Z        X      Y      Z
     1   8    -0.02   0.07  -0.00    -0.00   0.02  -0.00    -0.00   0.02  -0.00
     2   6     0.18  -0.08  -0.00     0.03  -0.03   0.00     0.03  -0.03   0.00
     3   7    -0.09   0.02  -0.01    -0.01   0.00  -0.00    -0.00   0.00  -0.00
     4   6    -0.00  -0.01   0.01    -0.00  -0.00   0.00    -0.00  -0.00   0.00
     5   6    -0.25  -0.03   0.00    -0.08   0.00   0.00    -0.14   0.02   0.00
     6   7    -0.05  -0.06   0.00     0.01  -0.03  -0.00     0.15   0.02  -0.00
     7   6     0.33   0.03  -0.00     0.10   0.05  -0.00    -0.04  -0.07   0.00
     8   6    -0.17   0.09   0.00    -0.17  -0.28   0.00    -0.21   0.10   0.00
     9   6    -0.04   0.02   0.00     0.19   0.14  -0.00     0.31  -0.06  -0.00
    10   6     0.09  -0.03  -0.00    -0.01  -0.23   0.00    -0.24   0.20   0.00
    11   6    -0.10  -0.07   0.00     0.13   0.35  -0.00     0.12  -0.07  -0.00
    12   6     0.12   0.05  -0.00    -0.13  -0.16   0.00    -0.30   0.05   0.00
    13   6     0.02  -0.07  -0.00    -0.02   0.20   0.00     0.26  -0.20  -0.00
    14   1     0.26   0.02   0.05     0.02   0.01   0.01     0.01   0.00   0.01
    15   1     0.13   0.09   0.11     0.02   0.02   0.01     0.01   0.01   0.00
    16   1     0.18   0.03  -0.05     0.02   0.01  -0.01     0.01   0.01  -0.00
    17   1    -0.01  -0.03  -0.03     0.01  -0.00  -0.00     0.01  -0.00  -0.00
    18   1     0.46   0.07  -0.00     0.11   0.03  -0.00     0.10   0.04  -0.00
    19   1    -0.39  -0.03   0.01    -0.27   0.01   0.00     0.03  -0.06  -0.00
    20   1    -0.05   0.03   0.00    -0.31   0.09   0.00    -0.30  -0.14   0.00
    21   1    -0.06   0.17   0.00    -0.27   0.06   0.00     0.13  -0.29  -0.00
    22   1    -0.01   0.19   0.00    -0.19  -0.39   0.00     0.15  -0.04  -0.00
    23   1    -0.19   0.03   0.00     0.17  -0.15  -0.00     0.29   0.13  -0.00
    24   1    -0.18   0.18   0.00     0.19  -0.07  -0.00    -0.11   0.34   0.00
                     55                     56                     57
                      A                      A                      A
 Frequencies --   1798.8949              2986.0109              3009.1985
 Red. masses --     10.0119                 1.0504                 1.0847
 Frc consts  --     19.0888                 5.5183                 5.7870
 IR Inten    --    369.5713               265.8602                12.7480
  Atom  AN      X      Y      Z        X      Y      Z        X      Y      Z
     1   8    -0.01  -0.41   0.01    -0.00   0.00   0.00    -0.00   0.00  -0.00
     2   6     0.10   0.72  -0.02     0.00  -0.00  -0.00     0.00   0.00  -0.00
     3   7    -0.05  -0.06   0.00    -0.00  -0.00  -0.00    -0.00   0.00   0.00
     4   6     0.02   0.03   0.00    -0.04  -0.00  -0.05    -0.00   0.00  -0.00
     5   6    -0.02  -0.12   0.00    -0.00   0.00  -0.00     0.01  -0.06  -0.00
     6   7    -0.11  -0.01   0.00     0.00   0.00  -0.00     0.00  -0.00  -0.00
     7   6     0.14   0.03  -0.00    -0.00  -0.00   0.00    -0.01   0.05   0.00
     8   6    -0.07   0.02   0.00     0.00  -0.00  -0.00     0.00   0.00  -0.00
     9   6     0.03   0.00  -0.00    -0.00  -0.00   0.00     0.00  -0.00  -0.00
    10   6    -0.02   0.01   0.00    -0.00  -0.00  -0.00    -0.00  -0.00   0.00
    11   6     0.01  -0.00  -0.00    -0.00   0.00   0.00     0.00  -0.00  -0.00
    12   6    -0.03   0.00   0.00     0.00   0.00   0.00    -0.00   0.00   0.00
    13   6     0.03  -0.02  -0.00    -0.00   0.00   0.00     0.00  -0.00  -0.00
    14   1     0.37  -0.08  -0.02    -0.00  -0.00   0.00    -0.00  -0.00  -0.00
    15   1    -0.07  -0.13  -0.03     0.25  -0.11  -0.22     0.00  -0.00  -0.00
    16   1    -0.07  -0.06   0.04     0.27  -0.06   0.86     0.00  -0.00   0.01
    17   1    -0.16   0.01  -0.00    -0.04   0.21  -0.06     0.00   0.00  -0.00
    18   1    -0.12  -0.13   0.01     0.00  -0.01  -0.00    -0.12   0.75   0.01
    19   1    -0.09   0.01   0.00    -0.00   0.01  -0.00     0.06  -0.64  -0.00
    20   1    -0.04  -0.01   0.00     0.00   0.00  -0.00    -0.00   0.01   0.00
    21   1     0.00  -0.02  -0.00     0.00   0.00  -0.00    -0.00   0.00   0.00
    22   1     0.01  -0.01  -0.00    -0.00   0.00  -0.00     0.00  -0.00  -0.00
    23   1     0.03   0.01  -0.00     0.00  -0.00  -0.00    -0.00  -0.00   0.00
    24   1    -0.02   0.04   0.00     0.00  -0.00  -0.00    -0.00  -0.00   0.00
                     58                     59                     60
                      A                      A                      A
 Frequencies --   3018.2900              3056.3124              3169.1171
 Red. masses --      1.0810                 1.0929                 1.0956
 Frc consts  --      5.8025                 6.0148                 6.4833
 IR Inten    --    199.2894               112.7726                 1.0133
  Atom  AN      X      Y      Z        X      Y      Z        X      Y      Z
     1   8    -0.00   0.00  -0.00     0.00   0.00  -0.00     0.00   0.00   0.00
     2   6     0.00  -0.00   0.00     0.00  -0.00   0.00     0.00  -0.00  -0.00
     3   7    -0.00   0.00   0.00    -0.00  -0.00  -0.00    -0.00   0.00  -0.00
     4   6    -0.00   0.00   0.00    -0.04   0.01   0.08     0.03  -0.08   0.01
     5   6     0.01  -0.05  -0.00    -0.00  -0.00   0.00     0.00  -0.00   0.00
     6   7     0.00  -0.00  -0.00     0.00   0.00  -0.00     0.00   0.00   0.00
     7   6     0.01  -0.06  -0.00    -0.00   0.00   0.00    -0.00   0.00  -0.00
     8   6    -0.00  -0.00   0.00     0.00  -0.00  -0.00    -0.00  -0.00  -0.00
     9   6    -0.00   0.00   0.00    -0.00  -0.00  -0.00    -0.00   0.00   0.00
    10   6     0.00   0.00  -0.00    -0.00  -0.00  -0.00    -0.00  -0.00   0.00
    11   6     0.00   0.00  -0.00    -0.00   0.00  -0.00     0.00  -0.00  -0.00
    12   6    -0.00  -0.00   0.00     0.00   0.00  -0.00    -0.00   0.00   0.00
    13   6    -0.00   0.00   0.00    -0.00   0.00  -0.00    -0.00  -0.00   0.00
    14   1    -0.00  -0.00  -0.00    -0.00  -0.00  -0.00     0.01  -0.01   0.00
    15   1     0.00  -0.00  -0.00     0.66  -0.31  -0.54    -0.17   0.08   0.15
    16   1    -0.00   0.00  -0.00    -0.12   0.04  -0.34    -0.03   0.00  -0.12
    17   1     0.00  -0.00   0.00    -0.04   0.18  -0.02    -0.15   0.92  -0.20
    18   1    -0.12   0.64   0.01    -0.00   0.00   0.00    -0.00   0.00   0.00
    19   1    -0.05   0.76   0.00     0.00  -0.00   0.00     0.00  -0.00   0.00
    20   1     0.00  -0.01  -0.00    -0.00   0.00   0.00     0.00  -0.04  -0.00
    21   1    -0.00  -0.00   0.00     0.00   0.00  -0.00     0.03   0.03  -0.00
    22   1    -0.00   0.00   0.00    -0.00   0.00   0.00    -0.02   0.01   0.00
    23   1     0.00   0.00  -0.00     0.00  -0.00   0.00     0.00  -0.01  -0.00
    24   1     0.00   0.00  -0.00     0.00  -0.00   0.00     0.00   0.00  -0.00
                     61                     62                     63
                      A                      A                      A
 Frequencies --   3169.1782              3179.7701              3188.8547
 Red. masses --      1.0845                 1.0883                 1.0945
 Frc consts  --      6.4177                 6.4832                 6.5573
 IR Inten    --     25.6938                11.4392                63.9278
  Atom  AN      X      Y      Z        X      Y      Z        X      Y      Z
     1   8     0.00   0.00   0.00     0.00   0.00  -0.00    -0.00  -0.00   0.00
     2   6    -0.00  -0.00  -0.00    -0.00  -0.00   0.00     0.00   0.00  -0.00
     3   7     0.00   0.00  -0.00     0.00   0.00  -0.00    -0.00  -0.00   0.00
     4   6     0.00  -0.01   0.00    -0.00  -0.00  -0.00     0.00   0.00   0.00
     5   6     0.00  -0.00   0.00     0.00   0.00   0.00    -0.00  -0.00  -0.00
     6   7    -0.00  -0.00   0.00    -0.00  -0.00   0.00    -0.00   0.00   0.00
     7   6     0.00  -0.00  -0.00     0.00   0.00  -0.00     0.00  -0.00  -0.00
     8   6     0.00   0.00  -0.00    -0.00  -0.00   0.00     0.00   0.00  -0.00
     9   6     0.00  -0.05  -0.00    -0.00   0.03   0.00     0.01  -0.06  -0.00
    10   6     0.05   0.04  -0.00    -0.01  -0.01   0.00    -0.04  -0.03   0.00
    11   6    -0.02   0.01   0.00    -0.02   0.01   0.00     0.02  -0.01  -0.00
    12   6     0.00  -0.02  -0.00     0.01  -0.07  -0.00     0.00  -0.02  -0.00
    13   6     0.00   0.00  -0.00     0.01   0.01  -0.00     0.00   0.00  -0.00
    14   1     0.00  -0.00   0.00    -0.00  -0.00   0.00     0.00   0.00  -0.00
    15   1    -0.01   0.00   0.01     0.00  -0.00  -0.00    -0.00   0.00   0.00
    16   1    -0.00   0.00  -0.01     0.00   0.00   0.00    -0.00  -0.00  -0.00
    17   1    -0.01   0.06  -0.01    -0.00   0.00  -0.00     0.00  -0.00   0.00
    18   1    -0.00   0.00   0.00     0.00  -0.00  -0.00    -0.00   0.00   0.00
    19   1    -0.00   0.01   0.00     0.00  -0.01  -0.00    -0.00   0.01   0.00
    20   1    -0.07   0.59   0.00     0.04  -0.32  -0.00    -0.08   0.72   0.00
    21   1    -0.57  -0.44   0.01     0.11   0.08  -0.00     0.47   0.35  -0.01
    22   1     0.25  -0.10  -0.00     0.28  -0.12  -0.00    -0.24   0.10   0.00
    23   1    -0.03   0.23   0.00    -0.10   0.87   0.00    -0.03   0.25   0.00
    24   1    -0.04  -0.03   0.00    -0.12  -0.09   0.00    -0.03  -0.03   0.00
                     64                     65                     66
                      A                      A                      A
 Frequencies --   3210.3190              3228.1492              3664.1977
 Red. masses --      1.0974                 1.0941                 1.0769
 Frc consts  --      6.6639                 6.7179                 8.5193
 IR Inten    --     49.6696                 4.0456                12.4253
  Atom  AN      X      Y      Z        X      Y      Z        X      Y      Z
     1   8    -0.00  -0.00   0.00     0.00  -0.00   0.00    -0.00   0.00  -0.00
     2   6     0.00   0.00  -0.00    -0.00   0.00  -0.00    -0.00  -0.00   0.00
     3   7    -0.00  -0.00   0.00     0.00  -0.00  -0.00    -0.00  -0.07   0.02
     4   6     0.00   0.00   0.00    -0.00  -0.00  -0.00     0.00   0.00   0.00
     5   6    -0.00  -0.00  -0.00     0.00  -0.00  -0.00    -0.00  -0.00  -0.00
     6   7    -0.00   0.00   0.00    -0.00   0.00   0.00     0.00  -0.00  -0.00
     7   6    -0.00  -0.00  -0.00    -0.00  -0.00   0.00    -0.00  -0.00   0.00
     8   6     0.00   0.00  -0.00    -0.00   0.00   0.00     0.00  -0.00   0.00
     9   6     0.00  -0.01  -0.00    -0.00   0.00   0.00    -0.00  -0.00   0.00
    10   6    -0.02  -0.02   0.00     0.00   0.00  -0.00     0.00  -0.00  -0.00
    11   6    -0.07   0.03   0.00     0.01  -0.00  -0.00    -0.00   0.00  -0.00
    12   6     0.00   0.03   0.00     0.01  -0.02  -0.00     0.00  -0.00  -0.00
    13   6    -0.01  -0.01   0.00    -0.07  -0.05   0.00    -0.00   0.00  -0.00
    14   1     0.00   0.00  -0.00     0.00  -0.00   0.00     0.04   0.97  -0.23
    15   1    -0.00   0.00   0.00     0.00  -0.00  -0.00    -0.00  -0.00  -0.00
    16   1    -0.00  -0.00  -0.00     0.00  -0.00   0.00     0.00   0.00   0.00
    17   1     0.00  -0.00   0.00    -0.00   0.00  -0.00     0.00   0.01  -0.00
    18   1    -0.00   0.00   0.00    -0.00   0.00   0.00    -0.00   0.00   0.00
    19   1    -0.00   0.00   0.00     0.00  -0.01  -0.00     0.00  -0.00  -0.00
    20   1    -0.02   0.14   0.00     0.00  -0.01  -0.00     0.00  -0.00  -0.00
    21   1     0.27   0.21  -0.00    -0.03  -0.02   0.00    -0.00  -0.00   0.00
    22   1     0.80  -0.34  -0.01    -0.07   0.03   0.00    -0.00   0.00  -0.00
    23   1     0.03  -0.28  -0.00    -0.02   0.19   0.00    -0.00   0.00  -0.00
    24   1     0.11   0.08  -0.00     0.79   0.58  -0.01     0.00  -0.00  -0.00

 -------------------
 - Thermochemistry -
 -------------------
 Temperature   298.150 Kelvin.  Pressure   1.00000 Atm.
 Atom     1 has atomic number  8 and mass  15.99491
 Atom     2 has atomic number  6 and mass  12.00000
 Atom     3 has atomic number  7 and mass  14.00307
 Atom     4 has atomic number  6 and mass  12.00000
 Atom     5 has atomic number  6 and mass  12.00000
 Atom     6 has atomic number  7 and mass  14.00307
 Atom     7 has atomic number  6 and mass  12.00000
 Atom     8 has atomic number  6 and mass  12.00000
 Atom     9 has atomic number  6 and mass  12.00000
 Atom    10 has atomic number  6 and mass  12.00000
 Atom    11 has atomic number  6 and mass  12.00000
 Atom    12 has atomic number  6 and mass  12.00000
 Atom    13 has atomic number  6 and mass  12.00000
 Atom    14 has atomic number  1 and mass   1.00783
 Atom    15 has atomic number  1 and mass   1.00783
 Atom    16 has atomic number  1 and mass   1.00783
 Atom    17 has atomic number  1 and mass   1.00783
 Atom    18 has atomic number  1 and mass   1.00783
 Atom    19 has atomic number  1 and mass   1.00783
 Atom    20 has atomic number  1 and mass   1.00783
 Atom    21 has atomic number  1 and mass   1.00783
 Atom    22 has atomic number  1 and mass   1.00783
 Atom    23 has atomic number  1 and mass   1.00783
 Atom    24 has atomic number  1 and mass   1.00783
 Molecular mass:   175.08714 amu.
 Principal axes and moments of inertia in atomic units:
                           1         2         3
     Eigenvalues --   562.374416678.188257223.40748
           X            0.99999  -0.00339   0.00183
           Y            0.00338   0.99999   0.00033
           Z           -0.00183  -0.00033   1.00000
 This molecule is an asymmetric top.
 Rotational symmetry number  1.
 Warning -- assumption of classical behavior for rotation
           may cause significant error
 Rotational temperatures (Kelvin)      0.15401     0.01297     0.01199
 Rotational constants (GHZ):           3.20915     0.27024     0.24985
 Zero-point vibrational energy     505552.4 (Joules/Mol)
                                  120.82993 (Kcal/Mol)
 Warning -- explicit consideration of  16 degrees of freedom as
           vibrations may cause significant error
 Vibrational temperatures:     62.04    85.91    93.06   133.24   175.21
          (Kelvin)            263.73   272.53   386.83   425.46   433.13
                              470.14   603.12   618.42   653.58   755.37
                              766.15   903.99   936.32  1034.31  1058.61
                             1080.25  1098.17  1118.53  1225.56  1243.34
                             1254.58  1317.99  1416.08  1432.06  1433.26
                             1472.85  1513.52  1569.83  1616.21  1632.62
                             1647.59  1666.48  1676.56  1735.67  1794.60
                             1882.59  1893.63  1938.74  1977.55  2030.05
                             2106.30  2127.72  2139.27  2156.00  2187.58
                             2243.59  2280.10  2359.31  2436.72  2588.21
                             4296.20  4329.57  4342.65  4397.35  4559.65
                             4559.74  4574.98  4588.05  4618.93  4644.59
                             5271.96
 
 Zero-point correction=                           0.192555 (Hartree/Particle)
 Thermal correction to Energy=                    0.204809
 Thermal correction to Enthalpy=                  0.205753
 Thermal correction to Gibbs Free Energy=         0.152865
 Sum of electronic and zero-point Energies=           -571.576481
 Sum of electronic and thermal Energies=              -571.564227
 Sum of electronic and thermal Enthalpies=            -571.563283
 Sum of electronic and thermal Free Energies=         -571.616171
 
                     E (Thermal)             CV                S
                      KCal/Mol        Cal/Mol-Kelvin    Cal/Mol-Kelvin
 Total                  128.520             45.442            111.313
 Electronic               0.000              0.000              0.000
 Translational            0.889              2.981             41.388
 Rotational               0.889              2.981             31.673
 Vibrational            126.742             39.481             38.252
 Vibration     1          0.595              1.980              5.110
 Vibration     2          0.597              1.974              4.467
 Vibration     3          0.597              1.971              4.309
 Vibration     4          0.602              1.954              3.604
 Vibration     5          0.609              1.931              3.072
 Vibration     6          0.631              1.863              2.294
 Vibration     7          0.633              1.854              2.234
 Vibration     8          0.673              1.730              1.604
 Vibration     9          0.690              1.682              1.441
 Vibration    10          0.693              1.672              1.411
 Vibration    11          0.710              1.622              1.276
 Vibration    12          0.782              1.429              0.895
 Vibration    13          0.791              1.405              0.859
 Vibration    14          0.813              1.351              0.783
 Vibration    15          0.880              1.195              0.598
 Vibration    16          0.887              1.178              0.582
                       Q            Log10(Q)             Ln(Q)
 Total Bot       0.486436D-70        -70.312974       -161.901607
 Total V=0       0.180294D+19         18.255982         42.035953
 Vib (Bot)       0.286505D-84        -84.542868       -194.667149
 Vib (Bot)    1  0.479700D+01          0.680970          1.567992
 Vib (Bot)    2  0.345838D+01          0.538873          1.240801
 Vib (Bot)    3  0.319073D+01          0.503890          1.160250
 Vib (Bot)    4  0.221919D+01          0.346195          0.797144
 Vib (Bot)    5  0.167740D+01          0.224638          0.517247
 Vib (Bot)    6  0.109446D+01          0.039199          0.090260
 Vib (Bot)    7  0.105684D+01          0.024009          0.055283
 Vib (Bot)    8  0.719227D+00         -0.143134         -0.329579
 Vib (Bot)    9  0.644665D+00         -0.190666         -0.439024
 Vib (Bot)   10  0.631356D+00         -0.199725         -0.459885
 Vib (Bot)   11  0.572943D+00         -0.241889         -0.556969
 Vib (Bot)   12  0.419135D+00         -0.377646         -0.869562
 Vib (Bot)   13  0.405431D+00         -0.392083         -0.902805
 Vib (Bot)   14  0.376199D+00         -0.424582         -0.977636
 Vib (Bot)   15  0.306033D+00         -0.514232         -1.184062
 Vib (Bot)   16  0.299635D+00         -0.523408         -1.205190
 Vib (V=0)       0.106191D+05          4.026088          9.270411
 Vib (V=0)    1  0.532299D+01          0.726156          1.672036
 Vib (V=0)    2  0.399434D+01          0.601445          1.384878
 Vib (V=0)    3  0.372967D+01          0.571670          1.316320
 Vib (V=0)    4  0.277482D+01          0.443235          1.020587
 Vib (V=0)    5  0.225034D+01          0.352248          0.811080
 Vib (V=0)    6  0.170326D+01          0.231282          0.532545
 Vib (V=0)    7  0.166915D+01          0.222495          0.512314
 Vib (V=0)    8  0.137595D+01          0.138602          0.319144
 Vib (V=0)    9  0.131584D+01          0.119203          0.274474
 Vib (V=0)   10  0.130536D+01          0.115732          0.266482
 Vib (V=0)   11  0.126044D+01          0.100521          0.231458
 Vib (V=0)   12  0.115244D+01          0.061617          0.141879
 Vib (V=0)   13  0.114372D+01          0.058319          0.134285
 Vib (V=0)   14  0.112572D+01          0.051431          0.118423
 Vib (V=0)   15  0.108622D+01          0.035919          0.082706
 Vib (V=0)   16  0.108291D+01          0.034591          0.079650
 Electronic      0.100000D+01          0.000000          0.000000
 Translational   0.910616D+08          7.959335         18.327047
 Rotational      0.186448D+07          6.270559         14.438495
 ***** Axes restored to original set *****
 -------------------------------------------------------------------
 Center     Atomic                   Forces (Hartrees/Bohr)
 Number     Number              X              Y              Z
 -------------------------------------------------------------------
      1        8          -0.000002073    0.000003314    0.000002068
      2        6           0.000013320   -0.000012048    0.000001874
      3        7          -0.000020687    0.000009911    0.000006643
      4        6           0.000012611    0.000008792   -0.000000202
      5        6           0.000010468   -0.000008047    0.000001336
      6        7          -0.000014317    0.000001250   -0.000004092
      7        6           0.000015745    0.000002148   -0.000000783
      8        6          -0.000013004    0.000007438    0.000000716
      9        6           0.000000007   -0.000000279   -0.000000853
     10        6           0.000001922   -0.000004850   -0.000000777
     11        6           0.000005095    0.000003930    0.000000491
     12        6          -0.000007136   -0.000001926    0.000000934
     13        6           0.000005552   -0.000003726    0.000000122
     14        1           0.000004106    0.000000688   -0.000014838
     15        1          -0.000005204   -0.000002996    0.000005323
     16        1          -0.000003305    0.000002042   -0.000000308
     17        1           0.000000261   -0.000003742   -0.000001700
     18        1          -0.000002545    0.000002620    0.000004657
     19        1          -0.000003536    0.000000470   -0.000001405
     20        1          -0.000000004    0.000002883   -0.000001145
     21        1           0.000002452    0.000002228   -0.000000708
     22        1           0.000003010   -0.000003362    0.000000356
     23        1           0.000000895   -0.000003989    0.000001282
     24        1          -0.000003632   -0.000002749    0.000001012
 -------------------------------------------------------------------
 Cartesian Forces:  Max     0.000020687 RMS     0.000006085
 FormGI is forming the generalized inverse of G from B-inverse, IUseBI=4.

 GradGradGradGradGradGradGradGradGradGradGradGradGradGradGradGradGradGrad
 Berny optimization.
 Internal  Forces:  Max     0.000015543 RMS     0.000003385
 Search for a local minimum.
 Step number   1 out of a maximum of    2
 All quantities printed in internal units (Hartrees-Bohrs-Radians)
 Second derivative matrix not updated -- analytic derivatives used.
 ITU=  0
     Eigenvalues ---    0.00075   0.00248   0.00717   0.01160   0.01481
     Eigenvalues ---    0.01591   0.01815   0.01846   0.01911   0.02174
     Eigenvalues ---    0.02384   0.02475   0.02490   0.02732   0.02854
     Eigenvalues ---    0.03127   0.03537   0.04580   0.05705   0.05896
     Eigenvalues ---    0.06410   0.10379   0.10764   0.10786   0.11207
     Eigenvalues ---    0.11825   0.12141   0.12241   0.12324   0.12560
     Eigenvalues ---    0.16984   0.17490   0.17638   0.18276   0.18709
     Eigenvalues ---    0.18888   0.19931   0.20245   0.21661   0.22144
     Eigenvalues ---    0.22230   0.27751   0.30970   0.31767   0.32256
     Eigenvalues ---    0.33072   0.33093   0.35004   0.35262   0.35639
     Eigenvalues ---    0.35867   0.35971   0.36363   0.37243   0.40738
     Eigenvalues ---    0.41815   0.42906   0.43669   0.44332   0.47089
     Eigenvalues ---    0.48042   0.48151   0.53007   0.53808   0.67561
     Eigenvalues ---    0.83321
 Angle between quadratic step and forces=  69.82 degrees.
 Linear search not attempted -- first point.
 Iteration  1 RMS(Cart)=  0.00079301 RMS(Int)=  0.00000072
 Iteration  2 RMS(Cart)=  0.00000078 RMS(Int)=  0.00000000
 Variable       Old X    -DE/DX   Delta X   Delta X   Delta X     New X
                                 (Linear)    (Quad)   (Total)
    R1        2.31586   0.00000   0.00000   0.00002   0.00002   2.31588
    R2        2.66371  -0.00002   0.00000  -0.00009  -0.00009   2.66362
    R3        2.73430   0.00000   0.00000   0.00000   0.00000   2.73430
    R4        2.70716   0.00000   0.00000   0.00002   0.00002   2.70718
    R5        1.90974  -0.00000   0.00000  -0.00000  -0.00000   1.90974
    R6        2.08553  -0.00001   0.00000  -0.00007  -0.00007   2.08547
    R7        2.09422  -0.00000   0.00000   0.00003   0.00003   2.09426
    R8        2.07410  -0.00000   0.00000  -0.00003  -0.00003   2.07407
    R9        2.49111   0.00001   0.00000   0.00002   0.00002   2.49113
   R10        2.09229  -0.00000   0.00000  -0.00001  -0.00001   2.09228
   R11        2.47519  -0.00001   0.00000  -0.00002  -0.00002   2.47516
   R12        2.72421   0.00000   0.00000   0.00002   0.00002   2.72424
   R13        2.09272  -0.00000   0.00000   0.00000   0.00000   2.09272
   R14        2.67409  -0.00000   0.00000  -0.00001  -0.00001   2.67408
   R15        2.68123  -0.00001   0.00000  -0.00002  -0.00002   2.68120
   R16        2.62948  -0.00001   0.00000  -0.00001  -0.00001   2.62947
   R17        2.06717  -0.00000   0.00000  -0.00001  -0.00001   2.06716
   R18        2.63931  -0.00000   0.00000   0.00000   0.00000   2.63931
   R19        2.06708  -0.00000   0.00000  -0.00001  -0.00001   2.06707
   R20        2.65038  -0.00001   0.00000  -0.00002  -0.00002   2.65036
   R21        2.06304  -0.00000   0.00000  -0.00001  -0.00001   2.06303
   R22        2.62005  -0.00000   0.00000   0.00000   0.00000   2.62005
   R23        2.06694  -0.00000   0.00000  -0.00001  -0.00001   2.06693
   R24        2.06231  -0.00000   0.00000  -0.00001  -0.00001   2.06230
    A1        2.08521  -0.00000   0.00000  -0.00006  -0.00006   2.08515
    A2        2.22513  -0.00000   0.00000  -0.00001  -0.00001   2.22512
    A3        1.97272   0.00000   0.00000   0.00007   0.00007   1.97279
    A4        2.10167   0.00000   0.00000  -0.00004  -0.00004   2.10163
    A5        2.02269   0.00000   0.00000   0.00012   0.00012   2.02281
    A6        2.06086  -0.00000   0.00000  -0.00002  -0.00002   2.06084
    A7        1.95467  -0.00000   0.00000  -0.00024  -0.00024   1.95443
    A8        1.98598  -0.00000   0.00000   0.00009   0.00009   1.98607
    A9        1.86118  -0.00000   0.00000   0.00011   0.00011   1.86129
   A10        1.88081   0.00000   0.00000   0.00004   0.00004   1.88085
   A11        1.90010   0.00000   0.00000   0.00012   0.00012   1.90021
   A12        1.87828   0.00000   0.00000  -0.00011  -0.00011   1.87817
   A13        2.12121  -0.00001   0.00000  -0.00004  -0.00004   2.12117
   A14        2.05819   0.00001   0.00000   0.00005   0.00005   2.05824
   A15        2.10378   0.00000   0.00000  -0.00002  -0.00002   2.10376
   A16        2.16554   0.00000   0.00000   0.00002   0.00002   2.16556
   A17        2.12592  -0.00000   0.00000  -0.00000  -0.00000   2.12592
   A18        2.11185   0.00000   0.00000   0.00004   0.00004   2.11189
   A19        2.04542  -0.00000   0.00000  -0.00004  -0.00004   2.04538
   A20        2.12095  -0.00000   0.00000  -0.00001  -0.00001   2.12094
   A21        2.12402  -0.00000   0.00000  -0.00000  -0.00000   2.12402
   A22        2.03821   0.00000   0.00000   0.00002   0.00002   2.03822
   A23        2.12265  -0.00000   0.00000  -0.00001  -0.00001   2.12264
   A24        2.06954   0.00000   0.00000  -0.00000  -0.00000   2.06954
   A25        2.09100   0.00000   0.00000   0.00001   0.00001   2.09101
   A26        2.10884  -0.00000   0.00000  -0.00001  -0.00001   2.10883
   A27        2.08335   0.00000   0.00000   0.00002   0.00002   2.08336
   A28        2.09100  -0.00000   0.00000  -0.00001  -0.00001   2.09099
   A29        2.06515   0.00000   0.00000   0.00001   0.00001   2.06516
   A30        2.10888  -0.00000   0.00000  -0.00002  -0.00002   2.10886
   A31        2.10916   0.00000   0.00000   0.00001   0.00001   2.10917
   A32        2.11644  -0.00000   0.00000  -0.00000  -0.00000   2.11643
   A33        2.08670   0.00000   0.00000   0.00001   0.00001   2.08671
   A34        2.08005  -0.00000   0.00000  -0.00001  -0.00001   2.08005
   A35        2.11509  -0.00000   0.00000  -0.00001  -0.00001   2.11508
   A36        2.04358   0.00000   0.00000   0.00000   0.00000   2.04359
   A37        2.12451   0.00000   0.00000   0.00001   0.00001   2.12451
    D1        0.21883   0.00000   0.00000   0.00044   0.00044   0.21926
    D2        2.89067   0.00000   0.00000   0.00056   0.00056   2.89122
    D3       -2.93881   0.00000   0.00000   0.00044   0.00044  -2.93837
    D4       -0.26698   0.00000   0.00000   0.00056   0.00056  -0.26642
    D5       -0.02201   0.00000   0.00000   0.00069   0.00069  -0.02132
    D6        3.11401   0.00000   0.00000   0.00071   0.00071   3.11473
    D7        3.13719   0.00001   0.00000   0.00068   0.00068   3.13788
    D8       -0.00997   0.00001   0.00000   0.00071   0.00071  -0.00926
    D9       -2.45364  -0.00000   0.00000  -0.00307  -0.00307  -2.45671
   D10        1.69116  -0.00000   0.00000  -0.00301  -0.00301   1.68814
   D11       -0.37682  -0.00000   0.00000  -0.00300  -0.00300  -0.37981
   D12        1.16770  -0.00001   0.00000  -0.00323  -0.00323   1.16447
   D13       -0.97069  -0.00000   0.00000  -0.00317  -0.00317  -0.97387
   D14       -3.03867  -0.00001   0.00000  -0.00316  -0.00316  -3.04182
   D15       -3.13967  -0.00000   0.00000  -0.00003  -0.00003  -3.13970
   D16        0.00764  -0.00000   0.00000  -0.00006  -0.00006   0.00758
   D17        3.13879  -0.00000   0.00000   0.00002   0.00002   3.13881
   D18       -0.00230  -0.00000   0.00000  -0.00000  -0.00000  -0.00230
   D19       -3.14128  -0.00000   0.00000   0.00000   0.00000  -3.14128
   D20        0.00024  -0.00000   0.00000   0.00000   0.00000   0.00025
   D21       -0.00017   0.00000   0.00000   0.00002   0.00002  -0.00016
   D22        3.14135   0.00000   0.00000   0.00002   0.00002   3.14137
   D23        3.14143   0.00000   0.00000   0.00001   0.00001   3.14144
   D24       -0.00026   0.00000   0.00000   0.00001   0.00001  -0.00025
   D25       -0.00010   0.00000   0.00000   0.00000   0.00000  -0.00009
   D26        3.14140   0.00000   0.00000   0.00001   0.00001   3.14140
   D27       -3.14144  -0.00000   0.00000  -0.00001  -0.00001  -3.14145
   D28        0.00039  -0.00000   0.00000  -0.00001  -0.00001   0.00037
   D29        0.00009  -0.00000   0.00000  -0.00001  -0.00001   0.00009
   D30       -3.14127  -0.00000   0.00000  -0.00001  -0.00001  -3.14128
   D31        0.00001   0.00000   0.00000   0.00000   0.00000   0.00002
   D32        3.14146   0.00000   0.00000   0.00000   0.00000   3.14146
   D33       -3.14148   0.00000   0.00000  -0.00000  -0.00000  -3.14148
   D34       -0.00004   0.00000   0.00000   0.00000   0.00000  -0.00004
   D35        0.00007  -0.00000   0.00000  -0.00000  -0.00000   0.00007
   D36        3.14138  -0.00000   0.00000  -0.00000  -0.00000   3.14138
   D37       -3.14137  -0.00000   0.00000  -0.00001  -0.00001  -3.14137
   D38       -0.00006  -0.00000   0.00000  -0.00000  -0.00000  -0.00006
   D39       -0.00008   0.00000   0.00000   0.00000   0.00000  -0.00008
   D40        3.14134   0.00000   0.00000   0.00000   0.00000   3.14134
   D41       -3.14139   0.00000   0.00000   0.00000   0.00000  -3.14139
   D42        0.00003  -0.00000   0.00000   0.00000   0.00000   0.00003
   D43       -0.00001  -0.00000   0.00000   0.00000   0.00000  -0.00000
   D44        3.14135   0.00000   0.00000   0.00001   0.00001   3.14135
   D45       -3.14143   0.00000   0.00000   0.00000   0.00000  -3.14142
   D46       -0.00007   0.00000   0.00000   0.00000   0.00000  -0.00007
         Item               Value     Threshold  Converged?
 Maximum Force            0.000016     0.000450     YES
 RMS     Force            0.000003     0.000300     YES
 Maximum Displacement     0.003724     0.001800     NO 
 RMS     Displacement     0.000793     0.001200     YES
 Predicted change in Energy=-4.720840D-08
                           ----------------------------
                           ! Non-Optimized Parameters !
                           ! (Angstroms and Degrees)  !
 --------------------------                            --------------------------
 ! Name  Definition              Value          Derivative Info.                !
 --------------------------------------------------------------------------------
 ! R1    R(1,2)                  1.2255         -DE/DX =    0.0                 !
 ! R2    R(2,3)                  1.4095         -DE/DX =    0.0                 !
 ! R3    R(2,5)                  1.4469         -DE/DX =    0.0                 !
 ! R4    R(3,4)                  1.4326         -DE/DX =    0.0                 !
 ! R5    R(3,14)                 1.0106         -DE/DX =    0.0                 !
 ! R6    R(4,15)                 1.1036         -DE/DX =    0.0                 !
 ! R7    R(4,16)                 1.1082         -DE/DX =    0.0                 !
 ! R8    R(4,17)                 1.0975         -DE/DX =    0.0                 !
 ! R9    R(5,6)                  1.3182         -DE/DX =    0.0                 !
 ! R10   R(5,18)                 1.1072         -DE/DX =    0.0                 !
 ! R11   R(6,7)                  1.3098         -DE/DX =    0.0                 !
 ! R12   R(7,8)                  1.4416         -DE/DX =    0.0                 !
 ! R13   R(7,19)                 1.1074         -DE/DX =    0.0                 !
 ! R14   R(8,9)                  1.4151         -DE/DX =    0.0                 !
 ! R15   R(8,13)                 1.4188         -DE/DX =    0.0                 !
 ! R16   R(9,10)                 1.3915         -DE/DX =    0.0                 !
 ! R17   R(9,20)                 1.0939         -DE/DX =    0.0                 !
 ! R18   R(10,11)                1.3967         -DE/DX =    0.0                 !
 ! R19   R(10,21)                1.0938         -DE/DX =    0.0                 !
 ! R20   R(11,12)                1.4025         -DE/DX =    0.0                 !
 ! R21   R(11,22)                1.0917         -DE/DX =    0.0                 !
 ! R22   R(12,13)                1.3865         -DE/DX =    0.0                 !
 ! R23   R(12,23)                1.0938         -DE/DX =    0.0                 !
 ! R24   R(13,24)                1.0913         -DE/DX =    0.0                 !
 ! A1    A(1,2,3)              119.4705         -DE/DX =    0.0                 !
 ! A2    A(1,2,5)              127.4897         -DE/DX =    0.0                 !
 ! A3    A(3,2,5)              113.0324         -DE/DX =    0.0                 !
 ! A4    A(2,3,4)              120.4145         -DE/DX =    0.0                 !
 ! A5    A(2,3,14)             115.8986         -DE/DX =    0.0                 !
 ! A6    A(4,3,14)             118.0773         -DE/DX =    0.0                 !
 ! A7    A(3,4,15)             111.9806         -DE/DX =    0.0                 !
 ! A8    A(3,4,16)             113.7936         -DE/DX =    0.0                 !
 ! A9    A(3,4,17)             106.6438         -DE/DX =    0.0                 !
 ! A10   A(15,4,16)            107.7647         -DE/DX =    0.0                 !
 ! A11   A(15,4,17)            108.8742         -DE/DX =    0.0                 !
 ! A12   A(16,4,17)            107.6112         -DE/DX =    0.0                 !
 ! A13   A(2,5,6)              121.5341         -DE/DX =    0.0                 !
 ! A14   A(2,5,18)             117.9285         -DE/DX =    0.0                 !
 ! A15   A(6,5,18)             120.5366         -DE/DX =    0.0                 !
 ! A16   A(5,6,7)              124.0774         -DE/DX =    0.0                 !
 ! A17   A(6,7,8)              121.806          -DE/DX =    0.0                 !
 ! A18   A(6,7,19)             121.0022         -DE/DX =    0.0                 !
 ! A19   A(8,7,19)             117.1917         -DE/DX =    0.0                 !
 ! A20   A(7,8,9)              121.5209         -DE/DX =    0.0                 !
 ! A21   A(7,8,13)             121.6975         -DE/DX =    0.0                 !
 ! A22   A(9,8,13)             116.7816         -DE/DX =    0.0                 !
 ! A23   A(8,9,10)             121.6183         -DE/DX =    0.0                 !
 ! A24   A(8,9,20)             118.5758         -DE/DX =    0.0                 !
 ! A25   A(10,9,20)            119.8059         -DE/DX =    0.0                 !
 ! A26   A(9,10,11)            120.8273         -DE/DX =    0.0                 !
 ! A27   A(9,10,21)            119.3679         -DE/DX =    0.0                 !
 ! A28   A(11,10,21)           119.8048         -DE/DX =    0.0                 !
 ! A29   A(10,11,12)           118.3247         -DE/DX =    0.0                 !
 ! A30   A(10,11,22)           120.8288         -DE/DX =    0.0                 !
 ! A31   A(12,11,22)           120.8465         -DE/DX =    0.0                 !
 ! A32   A(11,12,13)           121.2626         -DE/DX =    0.0                 !
 ! A33   A(11,12,23)           119.5594         -DE/DX =    0.0                 !
 ! A34   A(13,12,23)           119.178          -DE/DX =    0.0                 !
 ! A35   A(8,13,12)            121.1854         -DE/DX =    0.0                 !
 ! A36   A(8,13,24)            117.0889         -DE/DX =    0.0                 !
 ! A37   A(12,13,24)           121.7257         -DE/DX =    0.0                 !
 ! D1    D(1,2,3,4)             12.5629         -DE/DX =    0.0                 !
 ! D2    D(1,2,3,14)           165.6548         -DE/DX =    0.0                 !
 ! D3    D(5,2,3,4)           -168.3564         -DE/DX =    0.0                 !
 ! D4    D(5,2,3,14)           -15.2645         -DE/DX =    0.0                 !
 ! D5    D(1,2,5,6)             -1.2217         -DE/DX =    0.0                 !
 ! D6    D(1,2,5,18)           178.4608         -DE/DX =    0.0                 !
 ! D7    D(3,2,5,6)            179.787          -DE/DX =    0.0                 !
 ! D8    D(3,2,5,18)            -0.5306         -DE/DX =    0.0                 !
 ! D9    D(2,3,4,15)          -140.759          -DE/DX =    0.0                 !
 ! D10   D(2,3,4,16)            96.7234         -DE/DX =    0.0                 !
 ! D11   D(2,3,4,17)           -21.7617         -DE/DX =    0.0                 !
 ! D12   D(14,3,4,15)           66.7192         -DE/DX =    0.0                 !
 ! D13   D(14,3,4,16)          -55.7984         -DE/DX =    0.0                 !
 ! D14   D(14,3,4,17)         -174.2835         -DE/DX =    0.0                 !
 ! D15   D(2,5,6,7)           -179.8915         -DE/DX =    0.0                 !
 ! D16   D(18,5,6,7)             0.4343         -DE/DX =    0.0                 !
 ! D17   D(5,6,7,8)            179.8403         -DE/DX =    0.0                 !
 ! D18   D(5,6,7,19)            -0.1318         -DE/DX =    0.0                 !
 ! D19   D(6,7,8,9)           -179.9821         -DE/DX =    0.0                 !
 ! D20   D(6,7,8,13)             0.0142         -DE/DX =    0.0                 !
 ! D21   D(19,7,8,9)            -0.009          -DE/DX =    0.0                 !
 ! D22   D(19,7,8,13)          179.9873         -DE/DX =    0.0                 !
 ! D23   D(7,8,9,10)           179.9912         -DE/DX =    0.0                 !
 ! D24   D(7,8,9,20)            -0.0144         -DE/DX =    0.0                 !
 ! D25   D(13,8,9,10)           -0.0053         -DE/DX =    0.0                 !
 ! D26   D(13,8,9,20)          179.9891         -DE/DX =    0.0                 !
 ! D27   D(7,8,13,12)         -179.9916         -DE/DX =    0.0                 !
 ! D28   D(7,8,13,24)            0.0214         -DE/DX =    0.0                 !
 ! D29   D(9,8,13,12)            0.0049         -DE/DX =    0.0                 !
 ! D30   D(9,8,13,24)         -179.9821         -DE/DX =    0.0                 !
 ! D31   D(8,9,10,11)            0.0009         -DE/DX =    0.0                 !
 ! D32   D(8,9,10,21)          179.9922         -DE/DX =    0.0                 !
 ! D33   D(20,9,10,11)        -179.9935         -DE/DX =    0.0                 !
 ! D34   D(20,9,10,21)          -0.0021         -DE/DX =    0.0                 !
 ! D35   D(9,10,11,12)           0.004          -DE/DX =    0.0                 !
 ! D36   D(9,10,11,22)         179.9878         -DE/DX =    0.0                 !
 ! D37   D(21,10,11,12)       -179.9873         -DE/DX =    0.0                 !
 ! D38   D(21,10,11,22)         -0.0035         -DE/DX =    0.0                 !
 ! D39   D(10,11,12,13)         -0.0043         -DE/DX =    0.0                 !
 ! D40   D(10,11,12,23)        179.9857         -DE/DX =    0.0                 !
 ! D41   D(22,11,12,13)       -179.9882         -DE/DX =    0.0                 !
 ! D42   D(22,11,12,23)          0.0019         -DE/DX =    0.0                 !
 ! D43   D(11,12,13,8)          -0.0002         -DE/DX =    0.0                 !
 ! D44   D(11,12,13,24)        179.9862         -DE/DX =    0.0                 !
 ! D45   D(23,12,13,8)        -179.9903         -DE/DX =    0.0                 !
 ! D46   D(23,12,13,24)         -0.0039         -DE/DX =    0.0                 !
 --------------------------------------------------------------------------------
 GradGradGradGradGradGradGradGradGradGradGradGradGradGradGradGradGradGrad


 ----------------------------------------------------------------------

 Electric dipole moment (input orientation):
 (Debye = 10**-18 statcoulomb cm , SI units = C m)
                  (au)            (Debye)         (10**-30 SI)
   Tot        0.107910D+01      0.274279D+01      0.914895D+01
   x         -0.688500D-01     -0.174999D+00     -0.583734D+00
   y         -0.106177D+01     -0.269875D+01     -0.900205D+01
   z          0.179869D+00      0.457181D+00      0.152499D+01

 Dipole polarizability, Alpha (input orientation).
 (esu units = cm**3 , SI units = C**2 m**2 J**-1)
 Alpha(0;0):
               (au)            (10**-24 esu)      (10**-40 SI)
   iso        0.178126D+03      0.263955D+02      0.293689D+02
   aniso      0.253554D+03      0.375728D+02      0.418054D+02
   xx         0.342595D+03      0.507673D+02      0.564862D+02
   yx        -0.284492D+01     -0.421574D+00     -0.469064D+00
   yy         0.129325D+03      0.191640D+02      0.213228D+02
   zx         0.113897D+01      0.168777D+00      0.187790D+00
   zy         0.388881D+01      0.576262D+00      0.641178D+00
   zz         0.624573D+02      0.925522D+01      0.102978D+02

 ----------------------------------------------------------------------

 Dipole orientation:
     8          5.26775615          0.18479614         -3.00301744
     6          5.43573388         -0.30518725         -0.74582342
     7          7.83645328         -0.72576331          0.32889962
     6         10.08255275         -0.09735546         -1.04545552
     6          3.39655221         -0.56265428          1.05746494
     7          1.01932625         -0.22701979          0.39282024
     6         -0.89712436         -0.43235136          1.94575513
     6         -3.46305482         -0.03864962          1.11971510
     6         -5.52509089         -0.26272855          2.80748415
     6         -8.00321914          0.11680196          2.01437524
     6         -8.54059471          0.73640962         -0.49426344
     6         -6.51957508          0.96616207         -2.19343471
     6         -4.04423213          0.59156240         -1.42076725
     1          7.91257962         -0.69728371          2.23690790
     1         11.58342020         -1.52126573         -0.78216683
     1         10.88202445          1.77312722         -0.54754321
     1          9.55560516         -0.04118716         -3.05071056
     1          3.88878025         -1.06398165          3.02826225
     1         -0.60479838         -0.91822048          3.96019248
     1         -5.14028168         -0.74711173          4.77991985
     1         -9.54464096         -0.07447523          3.37829295
     1        -10.48488753          1.03383273         -1.11667446
     1         -6.89688183          1.44959585         -4.16730393
     1         -2.46102755          0.76625300         -2.73075932

 Electric dipole moment (dipole orientation):
 (Debye = 10**-18 statcoulomb cm , SI units = C m)
                  (au)            (Debye)         (10**-30 SI)
   Tot        0.107910D+01      0.274279D+01      0.914895D+01
   x          0.000000D+00      0.000000D+00      0.000000D+00
   y          0.000000D+00      0.000000D+00      0.000000D+00
   z          0.107910D+01      0.274279D+01      0.914895D+01

 Dipole polarizability, Alpha (dipole orientation).
 (esu units = cm**3 , SI units = C**2 m**2 J**-1)
 Alpha(0;0):
               (au)            (10**-24 esu)      (10**-40 SI)
   iso        0.178126D+03      0.263955D+02      0.293689D+02
   aniso      0.253554D+03      0.375728D+02      0.418054D+02
   xx         0.341260D+03      0.505695D+02      0.562662D+02
   yx        -0.151753D+02     -0.224875D+01     -0.250207D+01
   yy         0.664387D+02      0.984520D+01      0.109543D+02
   zx        -0.115858D+02     -0.171683D+01     -0.191023D+01
   zy        -0.140907D+02     -0.208803D+01     -0.232325D+01
   zz         0.126678D+03      0.187718D+02      0.208864D+02

 ----------------------------------------------------------------------
 Unable to Open any file for archive entry.
 1\1\GINC-NOTCH059\Freq\RM062X\def2SVP\C10H11N2O1(1-)\U6067110\31-Jan-2
 026\0\\#N Geom=AllCheck Guess=TCheck SCRF=Check GenChk RM062X/def2SVP 
 Freq\\vsa3_crest_conformers-3\\-1,1\O,2.8739797003,1.430255528,0.00919
 30968\C,2.9003013729,0.2060711243,-0.0411626118\N,4.1419642129,-0.4597
 503371,-0.0842953188\C,5.354910531,0.2484818652,0.1975141181\C,1.77142
 44688,-0.6979861891,-0.0850097185\N,0.5307235382,-0.2540027154,-0.0491
 399286\C,-0.5264652852,-1.0265056677,-0.0837799377\C,-1.8628801203,-0.
 4878843525,-0.0382829569\C,-3.0008592553,-1.3281355509,-0.0757066453\C
 ,-4.2916816272,-0.8104371418,-0.0317191323\C,-4.5079995745,0.566861138
 8,0.05147844\C,-3.391426247,1.4147281036,0.0894656295\C,-2.101522883,0
 .9081965026,0.046148417\H,4.116876321,-1.4528162782,0.1014011689\H,6.1
 780202905,-0.0595708108,-0.4699904759\H,5.7064236156,0.1349049148,1.24
 23497564\H,5.1431395405,1.3126421232,0.0320931976\H,1.978726033,-1.783
 3039222,-0.1555861112\H,-0.4264918337,-2.1274616873,-0.1492075714\H,-2
 .8507407503,-2.40972176,-0.1409428262\H,-5.1451245801,-1.4939357829,-0
 .0630514963\H,-5.5207394239,0.9730856146,0.085794824\H,-3.5375130398,2
 .4967615906,0.1543343402\H,-1.2273950045,1.5609336903,0.0750117427\\Ve
 rsion=ES64L-G16RevC.01\State=1-A\HF=-571.7690359\RMSD=3.127e-09\RMSF=6
 .085e-06\ZeroPoint=0.1925547\Thermal=0.2048092\ETot=-571.5642267\HTot=
 -571.5632825\GTot=-571.6161708\Dipole=-0.06885,-1.0617689,0.1798688\Di
 poleDeriv=-1.103933,-0.06132,-0.0266947,-1.2819786,-1.399044,-0.022486
 3,-0.0633115,-0.0390864,-0.4140151,3.9581815,0.0743334,0.0501127,1.617
 6744,1.4076683,0.0302707,0.0515573,0.0582185,0.2420263,-2.4698827,0.17
 16131,-0.0620593,0.2591336,-0.4025861,-0.1010772,0.3564562,-0.1219846,
 -0.4810528,1.006425,0.1034557,0.0908204,0.5715771,0.0690183,0.0941393,
 0.046978,0.0663233,0.4027866,-3.7340469,-0.4336693,-0.0468768,-0.30442
 49,0.2869402,0.04933,-0.0682643,0.036815,-0.3319287,3.7717786,0.217840
 7,0.0148556,0.7399648,-0.6885083,-0.0384313,0.0194981,-0.0285351,-0.13
 62456,-3.2308462,0.0769259,0.0002519,-0.9849125,0.4791534,0.0452122,-0
 .0206488,0.041626,-0.2528448,2.7727961,-0.3180083,-0.0241126,-1.092877
 4,-0.1235529,-0.0090762,-0.0915424,-0.0075293,0.0476274,-1.2390422,0.2
 132816,0.0133235,-0.37668,0.1136224,0.0208294,-0.0116115,0.0167572,-0.
 2020412,0.5741214,-0.1200398,-0.0103185,-0.1711614,0.2479331,0.0230217
 ,-0.0175397,0.0245839,-0.1435716,-0.6762533,-0.0420227,-0.0032989,0.12
 28254,-0.329368,-0.0052558,0.012798,-0.0057549,-0.2261178,0.6564359,0.
 0607379,-0.0004875,-0.1137365,0.18953,0.0189518,-0.0150212,0.0185676,-
 0.1388059,-0.6353719,0.0339755,0.0019256,1.0535891,-0.1595442,-0.00288
 89,0.0671311,-0.0001987,-0.1667478,0.1329023,-0.0510165,-0.0158517,-0.
 0899515,0.0760615,0.0184762,-0.1194803,0.0754488,0.2691835,-0.3590174,
 0.0116429,0.0951503,0.0473135,0.045007,-0.0544008,0.1482393,-0.0534746
 ,-0.0716748,-0.2765806,-0.0326926,-0.0882668,-0.0815577,0.0447306,0.02
 50578,-0.2960977,-0.0002585,-0.2457256,0.2104829,0.0447583,-0.0020129,
 -0.0990793,-0.0074669,0.0091271,-0.0154542,0.0182708,0.0595036,-0.0987
 28,0.020827,0.0033464,0.1759823,-0.2690039,-0.0258387,0.008662,-0.0264
 956,0.1204816,-0.0631806,0.0543207,0.0046814,0.0230243,-0.2821471,-0.0
 243008,0.0015573,-0.0226032,0.1058768,0.0514044,0.0499822,0.0037654,-0
 .0046935,-0.1509357,-0.0157264,0.0002188,-0.0159229,0.1105784,-0.14398
 48,-0.1184726,-0.0050642,-0.165442,-0.0340173,-0.0070344,-0.0071562,-0
 .0071033,0.1065403,-0.1773386,0.0795817,0.0073484,0.0898509,0.017548,-
 0.0072193,0.0081871,-0.0072597,0.1268896,0.0432249,0.0358067,0.0025973
 ,0.1009731,-0.1773725,-0.0168942,0.0065288,-0.017084,0.1057024,0.03045
 34,-0.0718417,-0.0031349,-0.0354134,0.046334,-0.0037859,-0.0016841,-0.
 0033201,0.113575\Polar=342.5946391,-2.8449228,129.3248584,1.1389657,3.
 8888106,62.45731\Quadrupole=-13.9394267,7.5752651,6.3641615,-6.8776289
 ,1.2443687,-0.1976999\PG=C01 [X(C10H11N2O1)]\NImag=0\\0.11576139,-0.03
 230276,0.79683431,-0.00104695,0.03085920,0.03992750,-0.11078431,0.0109
 6467,-0.00014818,0.59032662,0.00227490,-0.66987177,-0.02279607,0.04455
 580,0.99017139,0.00041876,-0.02292113,-0.08182843,0.00988707,0.0302265
 9,0.20931840,-0.00182502,0.04824611,0.00047597,-0.22677244,0.03023080,
 0.00886439,0.63664384,0.06120555,-0.06460780,-0.00414247,0.03715997,-0
 .14703891,-0.00688713,0.02951728,0.80381689,0.00195099,-0.00552304,0.0
 1780533,-0.01836902,0.00360477,-0.04785523,0.06612152,-0.05918215,0.08
 512128,-0.00052320,-0.00937975,0.00093654,-0.04868696,-0.00707775,-0.0
 0850254,-0.22186463,-0.07196951,-0.02938611,0.56149620,0.00146566,-0.0
 0787715,-0.00040413,-0.00552932,0.02668445,0.00269183,-0.06358995,-0.1
 5548707,-0.01172845,-0.04011624,0.57729332,0.00131783,0.00059711,-0.00
 074739,0.00522625,0.00082015,-0.00519981,-0.04807894,-0.02058399,-0.06
 486115,-0.00985218,-0.00728879,0.54589609,0.00314859,-0.04491825,-0.00
 202542,-0.16024979,-0.04699042,-0.00352844,-0.07030714,-0.00853116,0.0
 0498875,0.00670421,0.00678865,0.00064746,0.73427762,-0.03287374,-0.055
 91611,-0.00337769,-0.10708514,-0.17740624,-0.00716535,0.01551036,0.017
 41454,0.00097822,0.00485465,-0.00260627,-0.00076864,-0.01936756,0.6381
 0377,-0.00123334,-0.00310347,0.01729152,-0.00679992,-0.00622019,-0.060
 22555,0.00155926,0.00099307,0.01229434,-0.00007767,-0.00047591,0.00306
 435,-0.00729353,0.03352501,0.09290538,0.01064045,0.03600502,0.00171920
 ,-0.10648626,-0.04439320,-0.00128003,0.01962087,-0.00837753,-0.0063777
 3,-0.00708796,-0.00335000,0.00088842,-0.33056179,0.13827230,0.01289587
 ,0.78873152,-0.00196576,0.00553803,0.00024124,-0.01642858,0.00752458,0
 .00173253,-0.00367783,-0.00085327,-0.00000565,-0.00198463,0.00056879,-
 0.00022803,0.11355298,-0.14017010,-0.00583226,0.06499460,0.39821383,0.
 00003513,0.00018875,0.00030723,-0.00096645,0.00171416,-0.01709614,-0.0
 0066072,0.00011610,0.00459027,0.00013280,-0.00003205,0.00252088,0.0096
 2793,-0.00612225,-0.05318620,-0.00320055,0.01666148,0.09739608,-0.0046
 5389,-0.02424438,-0.00113765,0.04242784,0.04209358,0.00172008,-0.01733
 321,0.00068897,0.00378424,0.00479206,0.00373579,-0.00004587,-0.1493413
 4,-0.02998539,-0.00169304,-0.26646726,-0.15680698,-0.00667684,0.726389
 94,-0.00135038,-0.00605393,-0.00022935,0.01209508,0.01011661,-0.000231
 33,-0.00305451,0.00041197,0.00099751,0.00138221,0.00075374,-0.00001736
 ,-0.01506453,0.00046726,-0.00118407,-0.18075399,-0.23665434,-0.0083296
 1,0.04888206,0.66338119,-0.00012122,-0.00009281,-0.00132052,0.00053476
 ,-0.00058192,0.01121353,0.00007850,0.00013654,-0.00080734,0.00003682,0
 .00001556,-0.00057667,0.00054995,-0.00050081,0.01376895,-0.00852528,-0
 .00872731,-0.06034942,-0.00310154,0.03167114,0.11579933,0.00393095,0.0
 1497614,0.00068055,-0.02596997,-0.02194510,-0.00075368,0.01093636,-0.0
 0051178,-0.00234226,-0.00348317,-0.00243653,-0.00008458,0.04937380,0.0
 0080982,0.00054012,-0.11098037,-0.01639069,-0.00017953,-0.21850148,0.1
 0016940,0.00738912,0.68609811,-0.00176136,-0.00570511,-0.00024691,0.01
 016478,0.00946086,0.00025682,-0.00513532,-0.00000205,0.00100283,0.0014
 0948,0.00111947,0.00007114,-0.02116962,-0.00277316,-0.00094657,0.00064
 549,0.02010995,0.00199785,0.06207339,-0.14660296,-0.00580939,0.0022276
 8,0.67062262,-0.00013678,-0.00050624,-0.00022153,0.00095500,0.00069908
 ,0.00181650,-0.00041626,-0.00002885,-0.00036303,0.00011260,0.00010550,
 -0.00029131,-0.00180422,-0.00079850,0.01117124,0.00114502,0.00199056,-
 0.01264655,0.00521284,-0.00617861,-0.05814922,-0.00507788,0.02903706,0
 .17656494,-0.00171344,-0.00613003,-0.00027903,0.01029897,0.00917202,0.
 00034038,-0.00470178,0.00000465,0.00091745,0.00143714,0.00105938,0.000
 05894,-0.01822407,-0.00153443,-0.00025543,0.01983779,0.00658007,0.0003
 0570,-0.05642081,-0.02627360,-0.00084630,-0.23266686,-0.06873402,-0.00
 235167,0.70273749,-0.00035393,-0.00107985,-0.00005295,0.00224382,0.001
 50717,0.00007342,-0.00072817,0.00005534,0.00016804,0.00026976,0.000173
 23,-0.00000464,-0.00388887,0.00036249,0.00002260,0.01152517,0.00094558
 ,-0.00031247,-0.00550167,0.01516475,0.00046389,-0.11589725,-0.20325868
 ,-0.00649896,-0.03557447,0.71795296,-0.00000186,0.00000243,0.00001069,
 -0.00000093,0.00001018,-0.00022204,0.00001901,0.00001308,0.00004201,-0
 .00000768,-0.00000755,0.00003262,-0.00001497,0.00006645,-0.00070275,0.
 00049352,-0.00027155,0.00454972,0.00035890,0.00067636,0.00836828,-0.00
 512839,-0.00699284,-0.07205724,-0.00817139,0.03489251,0.13364925,0.000
 69429,0.00281051,0.00012912,-0.00461416,-0.00410870,-0.00015648,0.0019
 5101,-0.00000874,-0.00040115,-0.00062761,-0.00044671,-0.00001828,0.008
 10530,0.00022634,0.00008561,-0.01170943,-0.00075769,0.00006240,0.01342
 305,0.00009144,-0.00010243,-0.05889029,-0.03844771,-0.00157764,-0.3369
 6865,0.11986397,0.01004275,0.72723882,-0.00036504,-0.00116197,-0.00005
 976,0.00201654,0.00177846,0.00010845,-0.00083050,-0.00010373,0.0001424
 5,0.00025810,0.00020238,0.00000617,-0.00323684,-0.00040314,-0.00003202
 ,0.00210965,0.00029396,-0.00011097,-0.00647564,-0.00790068,-0.00065735
 ,0.01014763,0.06645950,0.00345260,0.04894036,-0.15812697,-0.00622060,0
 .02307660,0.71081730,-0.00002468,-0.00009700,0.00002260,0.00015198,0.0
 0016915,-0.00037303,-0.00007212,-0.00000464,0.00008774,0.00002097,0.00
 001457,0.00003880,-0.00026750,0.00000722,-0.00056735,0.00026534,-0.000
 08717,0.00200751,-0.00048266,-0.00073317,0.00450587,0.00127467,0.00396
 912,0.00600258,0.00585078,-0.00694985,-0.06236847,-0.00487472,0.033364
 83,0.14200756,-0.00104318,-0.00319513,-0.00013961,0.00562269,0.0045699
 0,0.00014769,-0.00266305,0.00011912,0.00053100,0.00082504,0.00059441,0
 .00003854,-0.00852831,-0.00078353,-0.00013221,0.01042323,0.00393203,0.
 00016131,-0.01358247,0.00051875,0.00017662,0.00185442,-0.02947945,-0.0
 0183264,0.01263966,0.02931364,0.00171147,-0.12739138,0.07122538,0.0048
 2936,0.73480099,0.00030840,0.00156475,0.00007105,-0.00228577,-0.002303
 46,-0.00009137,0.00093880,0.00006027,-0.00018800,-0.00030725,-0.000222
 71,-0.00001149,0.00416041,0.00000962,0.00003767,-0.00491935,0.00065708
 ,0.00008957,0.00592184,0.00523477,0.00027393,-0.02970529,-0.06396236,-
 0.00293813,0.08944657,-0.01556778,-0.00252111,-0.00277598,-0.34604954,
 -0.01656840,-0.03209042,0.68207451,0.00003115,0.00012681,0.00002840,-0
 .00020017,-0.00018741,-0.00001856,0.00008574,0.00000151,0.00000093,-0.
 00002947,-0.00002106,-0.00001286,0.00034265,0.00000562,0.00010740,-0.0
 0040963,0.00000882,-0.00027708,0.00049455,0.00034154,-0.00063124,-0.00
 185952,-0.00294098,-0.00869666,0.00524702,-0.00189441,0.01132418,0.000
 48147,-0.01729643,-0.06514687,-0.00838264,0.03313637,0.12457122,0.0008
 7325,0.00241890,0.00011038,-0.00448912,-0.00343497,-0.00012277,0.00209
 383,-0.00008894,-0.00041227,-0.00064471,-0.00046993,-0.00002442,0.0065
 3180,0.00103221,0.00013088,-0.00863689,-0.00400366,-0.00018536,0.01252
 982,-0.00622255,-0.00045356,0.01190728,0.08662208,0.00501377,-0.063548
 20,0.00195105,0.00070034,0.04572754,-0.07345740,-0.00467608,-0.2586713
 8,-0.06761966,-0.00185755,0.70058885,-0.00033436,-0.00071943,-0.000037
 96,0.00143278,0.00104928,0.00006174,-0.00075549,0.00007425,0.00014459,
 0.00023361,0.00016882,0.00001539,-0.00187025,0.00007281,-0.00002855,0.
 00171418,0.00215604,0.00015147,-0.00707687,-0.00714116,-0.00060660,0.0
 3932662,-0.00527224,-0.00107746,-0.01556509,-0.00345959,0.00035814,-0.
 01306762,-0.04466763,-0.00303447,-0.14141048,-0.20261140,-0.00657216,-
 0.01804055,0.73712842,-0.00002590,-0.00007609,0.00014436,0.00012742,0.
 00013832,-0.00056030,-0.00007258,-0.00000237,0.00007382,0.00001935,0.0
 0001106,0.00000278,-0.00017896,-0.00001931,0.00016487,0.00019028,0.000
 20093,-0.00056182,-0.00050207,-0.00062097,0.00448902,0.00224618,-0.001
 56557,0.00584650,-0.00032577,0.00017221,-0.00678876,-0.00114654,-0.002
 40981,0.00933888,-0.00616002,-0.00732073,-0.06466203,-0.00707216,0.035
 02755,0.14406463,-0.00074006,-0.00364759,-0.00016141,0.00528526,0.0049
 0168,0.00015964,-0.00235032,0.00001718,0.00047045,0.00075733,0.0005245
 2,0.00003638,-0.00853907,-0.00013097,-0.00009344,0.01050840,0.00601847
 ,0.00029017,-0.01541561,0.03681726,0.00243075,-0.12208506,-0.00679269,
 0.00010613,0.04460477,-0.02212248,-0.00170383,-0.02691353,0.03741321,0
 .00240791,-0.05879438,-0.04446819,-0.00186984,-0.35150034,0.12192830,0
 .01024753,0.77489867,0.00167531,0.00405271,0.00017503,-0.00782021,-0.0
 0584218,-0.00021502,0.00366823,-0.00016899,-0.00070852,-0.00113959,-0.
 00083414,-0.00005165,0.01160425,0.00103831,0.00024309,-0.01783518,-0.0
 0963173,-0.00044682,0.03770752,-0.01192757,-0.00167330,0.03557676,-0.3
 0094445,-0.01368532,-0.04769693,-0.02610334,-0.00142242,0.02364147,-0.
 04008813,-0.00223264,0.01254451,0.05985820,0.00272416,0.05106683,-0.16
 241266,-0.00637373,0.01470668,0.66653844,0.00010765,0.00027319,0.00012
 795,-0.00052214,-0.00040177,0.00005094,0.00024924,-0.00000340,-0.00001
 808,-0.00007839,-0.00006014,-0.00002516,0.00077780,0.00010641,-0.00087
 858,-0.00116341,-0.00062461,0.00005915,0.00248997,-0.00166375,0.009696
 28,0.00256075,-0.01323363,-0.07530691,-0.00317484,-0.00168466,0.006649
 33,0.00158850,-0.00237056,-0.00640837,0.00146715,0.00331819,0.01119806
 ,0.00610735,-0.00710857,-0.06379653,-0.00594722,0.03079912,0.14020270,
 -0.00787241,0.00492078,0.00075029,0.01604583,0.02780876,-0.00578903,-0
 .06655801,-0.01035008,-0.00597219,0.00256986,-0.02943971,0.00672812,-0
 .00258358,0.00180564,0.00061932,0.00097254,-0.00189532,0.00009775,-0.0
 0003160,0.00011104,-0.00005856,-0.00036464,0.00015703,-0.00000381,0.00
 019813,0.00003078,0.00000372,-0.00008097,0.00006113,0.00000957,0.00009
 715,-0.00004870,-0.00000205,-0.00008065,0.00001781,0.00000462,0.000112
 64,-0.00015224,-0.00001005,0.06383647,0.00326431,-0.00012280,0.0002172
 4,-0.00380550,-0.01404023,0.00339787,-0.00834797,-0.44360150,0.0757018
 5,0.00365062,-0.00743747,0.00320071,-0.00420031,0.00120169,-0.00083079
 ,0.00222189,-0.00012785,-0.00051340,-0.00140807,-0.00013779,-0.0000051
 5,0.00075693,-0.00036569,0.00005914,-0.00032861,-0.00005715,-0.0000094
 7,0.00014158,-0.00006804,-0.00001299,-0.00017341,0.00007098,0.00000626
 ,0.00014042,-0.00004266,0.00000473,-0.00016099,0.00023948,0.00001452,0
 .01008155,0.46375566,0.00015770,0.00009827,0.00584143,0.00740460,-0.00
 526267,-0.00658437,-0.00998288,0.09786638,-0.01965821,-0.00112786,-0.0
 0955308,-0.00250173,-0.00190517,0.00087846,-0.00130768,0.00172199,-0.0
 0061948,-0.00102365,-0.00112722,-0.00021673,-0.00003383,0.00061751,-0.
 00029258,0.00007506,-0.00024267,-0.00003944,-0.00002822,0.00010272,-0.
 00003575,-0.00002482,-0.00014135,0.00004398,-0.00000133,0.00011341,-0.
 00004132,-0.00000028,-0.00011401,0.00019040,0.00000055,0.00512394,-0.0
 8100680,0.02332385,-0.00007760,0.00109946,0.00003888,0.00333370,-0.006
 69584,0.00354939,-0.03410034,0.00570385,0.00856759,-0.17570636,0.05799
 883,0.11413355,-0.00325960,0.00121136,-0.00035861,0.00186287,-0.000064
 17,-0.00061115,-0.00192464,-0.00040506,0.00010775,0.00132015,-0.000611
 20,0.00000242,-0.00057604,-0.00009427,-0.00001040,0.00024090,-0.000111
 20,-0.00001976,-0.00032413,0.00011788,0.00000996,0.00025825,-0.0000896
 1,-0.00001447,-0.00028475,0.00045652,0.00002720,-0.00007504,-0.0000892
 7,-0.00015609,0.20563040,0.00226697,0.00272951,0.00097360,0.00057542,-
 0.00635125,0.00053945,-0.02152967,0.00754106,0.00979443,0.05985339,-0.
 07185524,-0.04960884,-0.00054137,0.00072736,-0.00054573,-0.00005681,-0
 .00009158,-0.00022041,-0.00011988,0.00000589,0.00006676,0.00003399,-0.
 00003309,0.00005314,-0.00002004,-0.00000054,-0.00000640,0.00000793,-0.
 00000700,-0.00000487,-0.00000637,0.00000570,0.00000195,0.00000555,0.00
 000006,-0.00000128,-0.00000705,0.00000888,0.00000139,0.00030424,-0.000
 08208,0.00057632,-0.05699704,0.06992761,-0.00007051,0.00005421,-0.0000
 2855,-0.00278399,-0.00037599,0.00014562,-0.00665580,0.00574485,0.01080
 098,0.11690130,-0.05080496,-0.15067299,0.00036140,0.00027771,-0.000190
 49,-0.00051236,-0.00006495,-0.00005827,0.00028479,0.00006504,0.0000313
 4,-0.00020376,0.00008804,0.00001924,0.00008412,0.00001686,-0.00000030,
 -0.00003592,0.00001558,0.00000103,0.00004922,-0.00001428,0.00000045,-0
 .00004229,0.00001336,0.00000347,0.00004044,-0.00007135,-0.00000127,0.0
 0068369,-0.00015075,-0.00005818,-0.12389347,0.05462479,0.15549608,-0.0
 0006050,0.00221681,0.00063991,0.00713639,-0.00562144,-0.00378117,-0.02
 422102,-0.00019937,-0.02940230,-0.06490358,0.01117477,-0.06066304,-0.0
 0343472,0.00033272,0.00072951,0.00248178,0.00006323,0.00060521,-0.0020
 6510,-0.00048402,-0.00011490,0.00138217,-0.00060361,-0.00011245,-0.000
 58875,-0.00010330,0.00001581,0.00025300,-0.00011374,0.00000210,-0.0003
 2854,0.00012777,0.00001241,0.00025679,-0.00009045,-0.00000094,-0.00029
 694,0.00045443,0.00003795,0.00053135,0.00061968,0.00094765,0.00688454,
 -0.00341191,0.02086449,0.07859106,0.00074894,0.00164180,-0.00093843,0.
 00321125,-0.00327368,-0.00106178,-0.01464518,0.00352370,-0.01760597,0.
 01137319,-0.05348027,0.03221699,-0.00117741,0.00015832,0.00064620,0.00
 087645,-0.00002591,0.00020244,-0.00068175,-0.00014111,-0.00003687,0.00
 043240,-0.00019246,-0.00006849,-0.00018182,-0.00003169,0.00000490,0.00
 007750,-0.00003399,0.00000154,-0.00010278,0.00003703,0.00000269,0.0000
 8186,-0.00002770,-0.00000226,-0.00009102,0.00014094,0.00000832,0.00049
 060,0.00057170,-0.00084112,-0.00183820,0.00161468,-0.01053991,-0.00471
 004,0.04980014,-0.00102571,0.00078487,0.00004970,0.00495182,-0.0017073
 9,-0.00085535,-0.01305511,-0.00546701,0.00281457,-0.06058615,0.0336816
 2,-0.27033071,-0.00261528,0.00015311,-0.00031242,0.00202772,0.00009234
 ,0.00014019,-0.00160331,-0.00037345,0.00001837,0.00111802,-0.00048552,
 -0.00003672,-0.00047223,-0.00007920,0.00000674,0.00020219,-0.00008367,
 -0.00000259,-0.00027131,0.00009880,0.00001298,0.00021085,-0.00007743,-
 0.00000085,-0.00024505,0.00036884,0.00003380,-0.00067339,0.00008909,0.
 00068354,-0.00411059,0.00445253,-0.01919602,0.07626242,-0.03136613,0.2
 9093452,-0.00142041,0.00466200,-0.00036669,0.00016910,-0.00778752,-0.0
 0006989,0.00341959,-0.03379419,0.00534006,-0.05580325,0.06149520,-0.01
 046380,0.00116735,0.00081385,-0.00014479,-0.00133445,0.00026363,-0.000
 04089,0.00097756,0.00017048,0.00000455,-0.00065195,0.00030139,0.000042
 20,0.00028058,0.00005064,-0.00000301,-0.00011578,0.00005296,0.00000312
 ,0.00016526,-0.00005219,-0.00000479,-0.00013475,0.00005009,0.00000460,
 0.00012941,-0.00024214,-0.00001719,-0.00553251,-0.00171034,-0.00104772
 ,-0.00309626,0.01962802,-0.00509999,-0.00156724,0.00614450,-0.00004242
 ,0.06298763,0.00421273,0.00166365,0.00015454,0.00326788,-0.00389930,0.
 00034895,-0.00453597,-0.02264824,0.00135111,0.04942330,-0.30805432,0.0
 4172221,-0.00044324,-0.00059076,-0.00000591,0.00040020,0.00028355,-0.0
 0004003,-0.00035103,-0.00006888,0.00000361,0.00026195,-0.00011598,-0.0
 0001310,-0.00011570,-0.00002164,-0.00000110,0.00004849,-0.00002474,-0.
 00000257,-0.00006422,0.00002379,0.00000219,0.00005194,-0.00001646,-0.0
 0000050,-0.00005764,0.00009507,0.00000601,-0.00231447,-0.00002256,-0.0
 0090790,0.00064148,-0.00410807,0.00112663,0.00043543,-0.00020555,-0.00
 002026,-0.05062156,0.33755457,-0.00005962,-0.00024567,-0.00227487,-0.0
 0034541,0.00034509,0.00147153,0.00159354,-0.00831225,0.00108161,-0.008
 51632,0.04380534,-0.05572010,-0.00018654,-0.00011431,0.00014509,0.0000
 8432,0.00003262,-0.00002214,-0.00007513,-0.00001920,-0.00001717,0.0000
 5448,-0.00002447,-0.00000666,-0.00002353,-0.00000357,-0.00000239,0.000
 00928,-0.00000365,-0.00000070,-0.00001401,0.00000410,-0.00000118,0.000
 01045,-0.00000369,-0.00000109,-0.00001169,0.00001989,-0.00000423,-0.00
 113987,-0.00045734,0.00009713,0.00260735,-0.02070257,0.00370060,-0.005
 83631,0.02943263,-0.00384964,0.01183382,-0.04376944,0.05531597,-0.0040
 9692,-0.00377952,-0.00013536,0.00632750,-0.01927918,-0.00119687,-0.001
 30263,-0.00047256,-0.00013832,0.00060039,0.00040183,0.00014840,-0.0580
 6512,0.03348651,0.00206481,-0.01887695,0.03515008,0.00252278,0.0066194
 9,0.00740014,0.00028899,-0.00044436,-0.00087970,-0.00005924,-0.0000280
 1,0.00016090,0.00001081,-0.00012959,0.00007155,0.00000666,-0.00011614,
 -0.00008938,-0.00000415,0.00003950,-0.00022714,-0.00001102,-0.00007455
 ,0.00029619,0.00001798,-0.00117573,-0.00064454,-0.00029265,-0.00002870
 ,0.00001654,0.00001806,0.00002169,0.00001436,-0.00001049,0.00033016,-0
 .00023870,0.00001712,0.06952283,-0.00550605,-0.00192514,-0.00046874,0.
 01543726,-0.01706051,-0.00074986,-0.00060583,0.00172338,0.00100968,-0.
 00081455,0.00074584,-0.00012634,0.02588655,-0.28272271,-0.01684042,0.0
 1776185,-0.01763302,-0.00226747,-0.00558953,0.00287214,0.00069248,0.00
 029298,0.00057688,0.00003516,0.00016495,-0.00023969,-0.00001311,0.0000
 8789,-0.00004468,-0.00000849,0.00025405,0.00008065,0.00000241,-0.00019
 494,0.00023893,-0.00001368,-0.00006882,-0.00039772,-0.00002445,-0.0016
 7914,0.00028211,-0.00080943,-0.00013642,-0.00002882,-0.00001790,-0.000
 03424,-0.00005329,-0.00001720,0.00051831,0.00017151,0.00002463,-0.0482
 0795,0.31173250,-0.00020239,-0.00050716,0.00507392,0.00090077,-0.00000
 970,-0.00440598,-0.00003366,-0.00027501,-0.00098739,-0.00000980,0.0000
 3011,-0.00065210,0.00201540,-0.01781961,-0.02568418,0.00086957,-0.0020
 0237,0.01617432,-0.00027703,0.00060684,-0.00696137,-0.00001724,0.00004
 747,0.00023147,0.00002466,-0.00000721,-0.00005261,-0.00000220,-0.00000
 158,0.00006581,0.00001924,-0.00000029,-0.00000810,-0.00000917,-0.00000
 826,0.00041897,-0.00000438,-0.00003210,0.00000490,-0.00035893,0.000356
 05,0.00114495,0.00009584,0.00003069,0.00002069,-0.00016349,-0.00008087
 ,-0.00005667,0.00007705,0.00003745,0.00007510,-0.00305730,0.01942178,0
 .01740313,-0.00036248,0.00035159,0.00001602,-0.00008746,0.00013246,0.0
 0003117,-0.00017621,-0.00005910,0.00001349,-0.00000240,0.00003754,0.00
 000998,0.00667414,-0.00618741,-0.00050671,-0.00387256,-0.03086705,-0.0
 0157564,-0.05933367,0.02948190,0.00197350,-0.00246188,0.02614083,0.001
 57171,0.00168122,0.00251774,0.00011648,-0.00039617,-0.00005873,-0.0000
 0418,0.00004940,-0.00038522,-0.00002206,0.00053346,0.00148870,0.000087
 25,-0.00480917,-0.00031251,0.00006321,-0.00003189,0.00003314,-0.000021
 94,-0.00002125,0.00000199,0.00000078,-0.00001064,-0.00000190,-0.000010
 72,0.00001338,0.00000929,0.00000019,0.00083760,0.00257660,0.00014628,0
 .06232145,-0.00045790,0.00072323,0.00002985,0.00003582,-0.00066843,-0.
 00005452,-0.00063538,-0.00010400,0.00005854,0.00007961,0.00013216,0.00
 003101,0.00725864,0.00274652,0.00056011,-0.01442513,-0.03186956,-0.002
 86328,0.03553642,-0.28171451,-0.01497833,-0.00233311,-0.01164684,-0.00
 070103,-0.00160436,0.00029588,0.00011832,0.00069774,0.00004615,0.00002
 277,0.00025946,0.00064036,0.00002766,-0.00091595,-0.00059957,-0.000058
 98,0.00234732,0.00061262,-0.00017405,0.00006412,-0.00001644,-0.0000289
 1,-0.00008579,-0.00000322,0.00000917,-0.00005415,-0.00002193,-0.000044
 09,0.00004785,-0.00001135,-0.00000622,-0.00273270,0.00122024,0.0001673
 6,-0.02421346,0.31939139,-0.00004582,0.00003793,0.00012618,0.00000081,
 -0.00008495,0.00048726,-0.00002057,0.00001748,-0.00003216,0.00000507,0
 .00000992,0.00003335,0.00036749,0.00065431,-0.00773708,-0.00068526,-0.
 00257155,0.01889140,0.00233376,-0.01496397,-0.03277021,-0.00008569,-0.
 00098734,0.00069609,-0.00013232,0.00007873,-0.00146903,0.00004238,0.00
 002944,-0.00048464,0.00001329,0.00003675,0.00011953,-0.00005176,-0.000
 08410,0.00056997,0.00021568,-0.00014422,0.00316625,-0.00000634,-0.0000
 5727,0.00001834,0.00001698,-0.00002372,-0.00000627,-0.00001937,0.00002
 459,-0.00003010,-0.00000549,0.00000753,0.00000503,-0.00016245,0.000119
 30,-0.00147977,-0.00185186,0.01783483,0.02008778,0.00003900,0.00013605
 ,0.00000530,-0.00013090,-0.00013683,-0.00000249,0.00009457,0.00001130,
 -0.00000942,-0.00003499,-0.00002230,-0.00000625,-0.00006775,-0.0000457
 7,-0.00000005,0.00025222,0.00109924,0.00005570,0.00055732,-0.00248423,
 -0.00018340,0.00850377,-0.02251088,-0.00136687,-0.06206624,0.03605973,
 0.00240095,0.00076639,0.02915512,0.00173161,-0.00473745,0.00094700,0.0
 0017862,-0.00106827,-0.00037154,-0.00001706,-0.00370043,-0.00230721,-0
 .00003257,-0.00001269,0.00000261,0.00000054,0.00001318,-0.00000051,-0.
 00000173,0.00001210,0.00000285,0.00001101,-0.00000480,0.00000305,0.000
 00069,-0.00000878,-0.00003170,-0.00000114,-0.00003680,0.00107221,0.000
 06716,0.06053041,-0.00008671,-0.00005260,-0.00000033,0.00031519,0.0001
 3098,-0.00000871,-0.00018193,0.00003256,0.00004147,0.00004341,0.000035
 85,0.00000104,-0.00037314,-0.00012393,-0.00001723,-0.00021571,0.000630
 76,0.00007972,0.00217318,0.00005590,0.00016027,0.00630328,-0.01547433,
 -0.00124817,0.03681419,-0.32922782,-0.01770780,-0.00206409,-0.00812426
 ,-0.00059746,0.00258877,0.00226919,-0.00030940,-0.00093349,0.00065756,
 0.00008111,-0.00407193,-0.00076348,-0.00035589,0.00000114,-0.00001359,
 -0.00001451,-0.00002117,-0.00000071,0.00000440,-0.00001836,-0.00000740
 ,-0.00001587,0.00001331,-0.00000383,-0.00000155,-0.00004631,0.00008238
 ,0.00000919,-0.00101591,0.00065664,0.00003426,-0.04021326,0.35017036,-
 0.00000786,-0.00000371,-0.00002024,0.00002651,-0.00000197,0.00016897,-
 0.00001201,-0.00000087,-0.00003046,0.00000481,0.00000489,-0.00000846,-
 0.00002592,-0.00001071,0.00009421,-0.00001990,0.00006490,-0.00067034,0
 .00008930,0.00020905,-0.00303055,0.00033901,-0.00094096,0.00457044,0.0
 0243837,-0.01771369,-0.03608403,-0.00010244,-0.00092405,0.00233700,0.0
 0027484,-0.00028861,0.00703691,-0.00004996,0.00007451,-0.00055196,-0.0
 0013895,-0.00037280,0.00598958,-0.00000224,0.00000040,0.00001439,0.000
 00416,0.00000075,-0.00000050,-0.00000806,-0.00000145,-0.00000612,0.000
 00134,0.00000038,0.00000085,-0.00000309,0.00000966,-0.00006391,-0.0000
 5762,0.00001480,0.00022942,-0.00274269,0.01961812,0.02532003,-0.000147
 52,-0.00033009,-0.00001368,0.00061896,0.00046848,0.00001344,-0.0003631
 4,0.00002040,0.00006385,0.00010949,0.00007975,0.00000917,-0.00077124,-
 0.00015213,-0.00001635,0.00011177,0.00027869,0.00001493,-0.00047812,-0
 .00167221,-0.00009066,-0.00354456,0.00377079,0.00033840,-0.01640554,-0
 .02145867,-0.00105309,-0.22680039,-0.13512300,-0.00596362,0.00599619,0
 .00477205,0.00025552,0.00170191,0.00099403,0.00011154,-0.00006400,0.00
 121350,0.00006297,0.00001646,-0.00002065,-0.00001799,-0.00004487,-0.00
 000002,0.00000763,-0.00004235,-0.00001323,-0.00003692,0.00002337,-0.00
 000906,-0.00000233,-0.00003932,0.00007917,0.00000437,-0.00009015,0.000
 17140,0.00001036,0.00103044,0.00042887,-0.00003310,0.23846687,-0.00009
 979,-0.00022891,-0.00000939,0.00047056,0.00032611,0.00000804,-0.000237
 70,0.00002053,0.00004688,0.00007661,0.00005294,0.00000427,-0.00062737,
 -0.00004432,-0.00001149,0.00090522,0.00017084,0.00002438,-0.00064728,0
 .00014796,0.00000665,0.00325178,0.00006617,-0.00048787,0.00973810,0.00
 979367,0.00025739,-0.13533719,-0.16707016,-0.00620268,-0.02660097,-0.0
 1159637,-0.00061482,0.00260274,-0.00547947,-0.00075211,0.00087425,-0.0
 0000964,0.00003870,0.00000891,-0.00001419,-0.00001323,-0.00002986,0.00
 000030,0.00000560,-0.00002876,-0.00000900,-0.00002478,0.00001604,-0.00
 000625,-0.00000156,-0.00000844,0.00002519,0.00000089,0.00000108,0.0000
 1174,-0.00000012,-0.00049233,0.00076141,0.00032126,0.14697116,0.172887
 43,-0.00000489,-0.00000960,-0.00000734,0.00002394,0.00001264,0.0000254
 1,-0.00001139,-0.00000012,-0.00000637,0.00000485,0.00000327,-0.0000001
 3,-0.00003146,-0.00000195,0.00002598,0.00005087,0.00002685,-0.00034758
 ,-0.00003156,0.00001631,0.00016543,0.00031006,-0.00049132,0.00772696,0
 .00078520,0.00058294,0.00372282,-0.00598401,-0.00621366,-0.03793596,-0
 .00158975,-0.00093551,0.00352447,0.00020864,-0.00073133,0.00679930,0.0
 0004254,0.00003301,-0.00081175,-0.00000047,0.00000041,0.00000451,0.000
 00004,0.00000024,-0.00000023,-0.00000312,-0.00000078,-0.00000298,0.000
 00092,-0.00000017,0.00000045,-0.00000009,-0.00000017,0.00001502,0.0000
 0107,-0.00000145,0.00000852,-0.00008759,0.00031138,-0.00458518,0.00642
 098,0.00710106,0.02647380,-0.00012364,-0.00018051,-0.00000758,0.000406
 65,0.00022726,0.00000727,-0.00024648,0.00001927,0.00003987,0.00008150,
 0.00005641,0.00000831,-0.00030851,-0.00004300,-0.00000940,0.00017961,0
 .00016111,0.00001065,-0.00014800,-0.00014832,-0.00001336,0.00067764,-0
 .00082524,-0.00006418,0.00184389,0.00093981,0.00010094,-0.00112159,-0.
 00204538,-0.00009745,-0.30176372,0.09806613,0.00861618,-0.01641999,0.0
 1354776,0.00097670,-0.00192002,-0.00460545,-0.00018865,0.00001280,-0.0
 0001103,-0.00001099,-0.00003205,0.00000118,0.00000582,-0.00002949,-0.0
 0000852,-0.00002635,0.00001798,-0.00000694,-0.00000156,-0.00004194,0.0
 0006422,0.00000178,-0.00006013,0.00007675,0.00000588,-0.00022148,-0.00
 001024,0.00000958,0.00061608,0.00052574,-0.00001813,0.31847010,0.00002
 843,0.00011798,0.00000718,-0.00017047,-0.00016052,-0.00001507,0.000087
 51,-0.00000029,-0.00001399,-0.00002980,-0.00002013,-0.00000237,0.00026
 652,0.00001669,0.00001019,-0.00023074,0.00011866,0.00000179,0.00016117
 ,0.00021945,0.00004795,-0.00074201,-0.00094382,0.00000275,-0.00086126,
 -0.00528743,-0.00067158,0.02967989,-0.00474904,-0.00065213,0.09793560,
 -0.09665800,-0.00499833,-0.01806050,0.01091860,0.00076405,-0.00278173,
 -0.00197056,-0.00043324,-0.00000475,0.00000513,0.00000370,0.00001103,-
 0.00000012,-0.00000184,0.00001122,0.00000317,0.00000973,-0.00000519,0.
 00000239,0.00000048,-0.00000690,0.00000036,0.00000774,-0.00005196,0.00
 006507,-0.00000209,0.00137582,-0.00052821,-0.00008995,-0.00060283,0.00
 107169,0.00031067,-0.10612258,0.09664193,0.00000143,0.00000911,-0.0000
 3400,-0.00000970,-0.00002170,0.00016622,0.00000882,0.00000253,-0.00002
 532,-0.00000196,-0.00000036,-0.00000022,0.00001609,0.00000793,-0.00011
 987,-0.00001366,0.00000162,0.00011073,0.00000200,0.00005094,-0.0006296
 4,-0.00005609,0.00000352,-0.00085454,-0.00000807,-0.00069378,0.0062715
 5,0.00177050,-0.00032942,0.00109162,0.00859650,-0.00499437,-0.02951431
 ,-0.00087302,0.00043744,0.00112150,-0.00007850,-0.00041292,0.00590508,
 -0.00000216,-0.00000215,0.00000131,0.00000347,0.00000012,-0.00000100,-
 0.00000184,0.00000027,-0.00000185,-0.00000051,0.00000008,0.00000050,-0
 .00000067,0.00000809,-0.00013015,-0.00000140,-0.00000325,0.00011087,0.
 00009121,-0.00007560,0.00075108,-0.00008483,0.00030022,-0.00411053,-0.
 00932887,0.00546125,0.02308391,-0.00001792,-0.00021758,-0.00000998,0.0
 0017387,0.00025797,0.00000921,-0.00008099,-0.00002301,0.00001089,0.000
 02857,0.00002088,0.00000418,-0.00022249,-0.00002290,-0.00000311,0.0001
 0332,-0.00024531,-0.00001294,0.00084491,0.00107375,0.00005338,-0.00531
 102,0.00169466,0.00024383,-0.00114318,-0.00010430,-0.00000154,-0.00351
 771,-0.00295310,-0.00006852,0.00824262,-0.02400478,-0.00145561,-0.0632
 5284,0.03565277,0.00234162,0.00160696,0.02917820,0.00173808,0.00000876
 ,-0.00000426,-0.00000053,-0.00001013,-0.00000074,-0.00000015,-0.000011
 77,-0.00000267,-0.00000930,0.00000261,-0.00000159,0.00000004,0.0000058
 9,0.00000928,0.00000002,-0.00041740,0.00025763,0.00001478,0.00009284,0
 .00005690,-0.00000842,0.00013384,-0.00125947,-0.00007200,0.00088813,0.
 00082516,-0.00000070,0.06082357,0.00015536,0.00053000,0.00002403,-0.00
 078107,-0.00070579,-0.00002185,0.00039616,0.00000053,-0.00006976,-0.00
 012958,-0.00009214,-0.00001137,0.00104173,0.00008868,0.00001430,-0.001
 00479,-0.00012986,-0.00000937,0.00044855,-0.00030240,-0.00001797,0.001
 65916,0.00157573,-0.00041637,0.00028547,0.00109620,0.00010169,-0.00442
 785,-0.00026953,-0.00034726,0.00721346,-0.01386407,-0.00109129,0.03588
 895,-0.33068950,-0.01748294,-0.00153093,-0.00832607,-0.00073259,-0.000
 02012,0.00002225,0.00001630,0.00004928,0.00000038,-0.00000624,0.000050
 36,0.00001414,0.00004229,-0.00002389,0.00000980,0.00000166,0.00002379,
 -0.00005163,-0.00000422,0.00023650,-0.00014884,0.00001213,0.00004230,-
 0.00012405,0.00005184,0.00021080,-0.00091819,-0.00007452,-0.00030259,0
 .00077419,0.00027159,-0.03954637,0.35075469,0.00000869,0.00003572,-0.0
 0001892,-0.00004739,-0.00004400,-0.00001697,0.00002233,-0.00000158,-0.
 00000924,-0.00000560,-0.00000458,0.00000526,0.00006292,0.00000380,0.00
 003832,-0.00005808,-0.00001279,0.00011733,0.00001634,-0.00002266,-0.00
 010161,0.00024243,-0.00042021,0.00837833,0.00002195,0.00010585,-0.0006
 8193,-0.00015666,-0.00036486,0.00645263,0.00037385,-0.00076514,0.00345
 476,0.00235565,-0.01747197,-0.03966292,-0.00006052,-0.00105769,0.00441
 425,-0.00000131,0.00000225,0.00000607,0.00000393,-0.00000101,-0.000001
 71,0.00000111,0.00000170,-0.00000089,-0.00000139,0.00000072,0.00000202
 ,0.00000147,-0.00000474,0.00002727,0.00001463,0.00001107,-0.00038398,-
 0.00000922,0.00005207,-0.00101578,0.00001422,-0.00005931,0.00031105,-0
 .00006660,0.00026034,-0.00379960,-0.00267161,0.01941053,0.02751844,0.0
 0037458,-0.00048245,-0.00003066,0.00009797,0.00077734,0.00003491,0.000
 10636,-0.00008154,0.00001061,-0.00003297,-0.00003294,-0.00001817,-0.00
 151831,-0.00014380,-0.00000778,0.00028754,0.00299353,0.00018760,-0.002
 86478,-0.00028009,-0.00001348,0.00937095,0.00174320,0.00005972,-0.0005
 0806,0.00090036,0.00012240,0.00087693,0.00024233,-0.00000275,-0.002772
 52,0.00394534,0.00034221,-0.01459514,-0.01748720,-0.00082962,-0.240415
 20,-0.14167893,-0.00616133,-0.00000226,-0.00000776,-0.00000097,0.00001
 776,-0.00000379,-0.00000175,0.00000976,0.00000059,0.00001030,-0.000022
 59,0.00000441,0.00000104,0.00012369,-0.00026396,-0.00001825,0.00005962
 ,-0.00044703,-0.00002671,0.00019834,0.00051400,0.00002436,-0.00003417,
 -0.00007303,-0.00001464,-0.00075733,-0.00071165,-0.00002805,0.00102957
 ,0.00006533,-0.00006112,0.25097027,-0.00014878,-0.00007341,0.00001123,
 -0.00004077,-0.00012760,-0.00002257,-0.00010384,-0.00005915,-0.0000168
 5,0.00004072,0.00003591,0.00001730,0.00184062,0.00034869,0.00002237,-0
 .00186958,-0.00002444,0.00004044,-0.00053399,-0.00018630,0.00014904,-0
 .02626478,-0.01269798,-0.00078790,0.00241459,-0.00488511,-0.00065591,0
 .00099093,-0.00070454,-0.00001341,0.00283771,0.00024878,-0.00046172,0.
 01158002,0.01067468,0.00030035,-0.13961685,-0.16316399,-0.00569452,0.0
 0004100,0.00000104,0.00000914,-0.00002060,0.00000029,0.00000193,-0.000
 01304,-0.00000164,-0.00001124,0.00000877,-0.00000640,-0.00000096,-0.00
 040887,0.00040512,0.00003280,0.00014388,0.00026270,0.00002212,-0.00129
 072,-0.00103937,-0.00002177,-0.00007721,0.00004054,0.00006180,0.000624
 16,0.00036283,-0.00002117,-0.00064112,0.00075547,0.00034646,0.15050775
 ,0.16983387,-0.00002181,0.00001834,-0.00025502,0.00000237,-0.00004439,
 0.00037737,-0.00000628,0.00000029,-0.00005889,0.00000664,0.00000737,0.
 00000667,0.00011958,0.00003487,-0.00015949,-0.00010621,-0.00000617,-0.
 00062563,-0.00003284,0.00014951,-0.00267763,-0.00158428,-0.00109559,0.
 00553101,0.00020867,-0.00064222,0.00583059,0.00004155,-0.00000540,-0.0
 0064682,0.00027344,-0.00047298,0.00759093,0.00086866,0.00059968,0.0035
 4849,-0.00601879,-0.00565304,-0.04024794,-0.00000062,-0.00000443,0.000
 01117,0.00000604,-0.00000133,-0.00000371,-0.00001156,0.00000180,-0.000
 01149,0.00000092,-0.00000041,0.00000428,-0.00002538,0.00003877,-0.0001
 7329,0.00000635,0.00002862,-0.00015674,-0.00008230,-0.00004051,-0.0004
 4534,-0.00001480,0.00006204,-0.00099565,0.00005013,-0.00000725,0.00060
 666,-0.00010162,0.00033940,-0.00503214,0.00642214,0.00669304,0.0279826
 2\\0.00000207,-0.00000331,-0.00000207,-0.00001332,0.00001205,-0.000001
 87,0.00002069,-0.00000991,-0.00000664,-0.00001261,-0.00000879,0.000000
 20,-0.00001047,0.00000805,-0.00000134,0.00001432,-0.00000125,0.0000040
 9,-0.00001575,-0.00000215,0.00000078,0.00001300,-0.00000744,-0.0000007
 2,0.,0.00000028,0.00000085,-0.00000192,0.00000485,0.00000078,-0.000005
 09,-0.00000393,-0.00000049,0.00000714,0.00000193,-0.00000093,-0.000005
 55,0.00000373,-0.00000012,-0.00000411,-0.00000069,0.00001484,0.0000052
 0,0.00000300,-0.00000532,0.00000331,-0.00000204,0.00000031,-0.00000026
 ,0.00000374,0.00000170,0.00000254,-0.00000262,-0.00000466,0.00000354,-
 0.00000047,0.00000141,0.,-0.00000288,0.00000115,-0.00000245,-0.0000022
 3,0.00000071,-0.00000301,0.00000336,-0.00000036,-0.00000090,0.00000399
 ,-0.00000128,0.00000363,0.00000275,-0.00000101\\\@
 The archive entry for this job was punched.


 WHAT, THEN, IS TIME?  IF NO ONE ASKS ME, I KNOW WHAT IT IS.
 IF I WISH TO EXPLAIN WHAT IT IS TO HIM WHO ASKS ME, I DO NOT KNOW.
                                   -- ST. AUGUSTINE (FIFTH CENTURY)
 Job cpu time:       0 days  1 hours  4 minutes 34.8 seconds.
 Elapsed time:       0 days  0 hours  2 minutes  2.0 seconds.
 File lengths (MBytes):  RWF=    237 Int=      0 D2E=      0 Chk=      7 Scr=      2
 Normal termination of Gaussian 16 at Sat Jan 31 06:57:42 2026.
 Initial command:
 /uufs/chpc.utah.edu/sys/installdir/gaussian16/C01/AVX/g16/l1.exe "/scratch/general/vast/u6067110/GAUSSSCRDIR/10754894-notchpeak.peaks/Gau-1225098.inp" -scrdir="/scratch/general/vast/u6067110/GAUSSSCRDIR/10754894-notchpeak.peaks/"
 Entering Link 1 = /uufs/chpc.utah.edu/sys/installdir/gaussian16/C01/AVX/g16/l1.exe PID=   1229128.
  
 Copyright (c) 1988-2019, Gaussian, Inc.  All Rights Reserved.
  
 This is part of the Gaussian(R) 16 program.  It is based on
 the Gaussian(R) 09 system (copyright 2009, Gaussian, Inc.),
 the Gaussian(R) 03 system (copyright 2003, Gaussian, Inc.),
 the Gaussian(R) 98 system (copyright 1998, Gaussian, Inc.),
 the Gaussian(R) 94 system (copyright 1995, Gaussian, Inc.),
 the Gaussian 92(TM) system (copyright 1992, Gaussian, Inc.),
 the Gaussian 90(TM) system (copyright 1990, Gaussian, Inc.),
 the Gaussian 88(TM) system (copyright 1988, Gaussian, Inc.),
 the Gaussian 86(TM) system (copyright 1986, Carnegie Mellon
 University), and the Gaussian 82(TM) system (copyright 1983,
 Carnegie Mellon University). Gaussian is a federally registered
 trademark of Gaussian, Inc.
  
 This software contains proprietary and confidential information,
 including trade secrets, belonging to Gaussian, Inc.
  
 This software is provided under written license and may be
 used, copied, transmitted, or stored only in accord with that
 written license.
  
 The following legend is applicable only to US Government
 contracts under FAR:
  
                    RESTRICTED RIGHTS LEGEND
  
 Use, reproduction and disclosure by the US Government is
 subject to restrictions as set forth in subparagraphs (a)
 and (c) of the Commercial Computer Software - Restricted
 Rights clause in FAR 52.227-19.
  
 Gaussian, Inc.
 340 Quinnipiac St., Bldg. 40, Wallingford CT 06492
  
  
 ---------------------------------------------------------------
 Warning -- This program may not be used in any manner that
 competes with the business of Gaussian, Inc. or will provide
 assistance to any competitor of Gaussian, Inc.  The licensee
 of this program is prohibited from giving any competitor of
 Gaussian, Inc. access to this program.  By using this program,
 the user acknowledges that Gaussian, Inc. is engaged in the
 business of creating and licensing software in the field of
 computational chemistry and represents and warrants to the
 licensee that it is not a competitor of Gaussian, Inc. and that
 it will not use this program in any manner prohibited above.
 ---------------------------------------------------------------
  

 Cite this work as:
 Gaussian 16, Revision C.01,
 M. J. Frisch, G. W. Trucks, H. B. Schlegel, G. E. Scuseria, 
 M. A. Robb, J. R. Cheeseman, G. Scalmani, V. Barone, 
 G. A. Petersson, H. Nakatsuji, X. Li, M. Caricato, A. V. Marenich, 
 J. Bloino, B. G. Janesko, R. Gomperts, B. Mennucci, H. P. Hratchian, 
 J. V. Ortiz, A. F. Izmaylov, J. L. Sonnenberg, D. Williams-Young, 
 F. Ding, F. Lipparini, F. Egidi, J. Goings, B. Peng, A. Petrone, 
 T. Henderson, D. Ranasinghe, V. G. Zakrzewski, J. Gao, N. Rega, 
 G. Zheng, W. Liang, M. Hada, M. Ehara, K. Toyota, R. Fukuda, 
 J. Hasegawa, M. Ishida, T. Nakajima, Y. Honda, O. Kitao, H. Nakai, 
 T. Vreven, K. Throssell, J. A. Montgomery, Jr., J. E. Peralta, 
 F. Ogliaro, M. J. Bearpark, J. J. Heyd, E. N. Brothers, K. N. Kudin, 
 V. N. Staroverov, T. A. Keith, R. Kobayashi, J. Normand, 
 K. Raghavachari, A. P. Rendell, J. C. Burant, S. S. Iyengar, 
 J. Tomasi, M. Cossi, J. M. Millam, M. Klene, C. Adamo, R. Cammi, 
 J. W. Ochterski, R. L. Martin, K. Morokuma, O. Farkas, 
 J. B. Foresman, and D. J. Fox, Gaussian, Inc., Wallingford CT, 2019.
 
 ******************************************
 Gaussian 16:  ES64L-G16RevC.01  3-Jul-2019
                31-Jan-2026 
 ******************************************
 %NProcShared=32
 Will use up to   32 processors via shared memory.
 %Mem=48GB
 %chk=vsa3_crest_conformers-3.chk
 ----------------------------------------------------------------------
 #N Guess=Read Geom=Check Integral(Ultrafine) Density Pop=NBO7 Pop=Hirs
 hfeld Pop=(ChelpG,ReadRadii) Polar Prop=(Potential,EFG) Volume M062X E
 mpiricalDispersion=GD3 def2TZVPP SCRF(IEFPCM,solvent=THF)
 ----------------------------------------------------------------------
 1/29=2,38=1,172=1/1;
 2/12=2,40=1/2;
 3/5=44,7=202,11=2,14=-4,25=1,30=1,70=2201,72=20,74=-55,75=-5,116=-2,124=31/1,2,3;
 4/5=1/1;
 5/5=2,38=6,53=20,98=1/2;
 8/6=4,10=90,11=11/1;
 10/6=1,13=10/2;
 6/7=2,8=2,9=2,10=2,14=4,15=8,20=103,22=-1,28=1,40=1,44=1,79=1,113=1,114=1,124=3103/1,2,4,12;
 99/5=1,9=1/99;
 -----------------------
 vsa3_crest_conformers-3
 -----------------------
 Structure from the checkpoint file:  "vsa3_crest_conformers-3.chk"
 Charge = -1 Multiplicity = 1
 Redundant internal coordinates found in file.  (old form).
 O,0,2.8739797003,1.430255528,0.0091930968
 C,0,2.9003013729,0.2060711243,-0.0411626118
 N,0,4.1419642129,-0.4597503371,-0.0842953188
 C,0,5.354910531,0.2484818652,0.1975141181
 C,0,1.7714244688,-0.6979861891,-0.0850097185
 N,0,0.5307235382,-0.2540027154,-0.0491399286
 C,0,-0.5264652852,-1.0265056677,-0.0837799377
 C,0,-1.8628801203,-0.4878843525,-0.0382829569
 C,0,-3.0008592553,-1.3281355509,-0.0757066453
 C,0,-4.2916816272,-0.8104371418,-0.0317191323
 C,0,-4.5079995745,0.5668611388,0.05147844
 C,0,-3.391426247,1.4147281036,0.0894656295
 C,0,-2.101522883,0.9081965026,0.046148417
 H,0,4.116876321,-1.4528162782,0.1014011689
 H,0,6.1780202905,-0.0595708108,-0.4699904759
 H,0,5.7064236156,0.1349049148,1.2423497564
 H,0,5.1431395405,1.3126421232,0.0320931976
 H,0,1.978726033,-1.7833039222,-0.1555861112
 H,0,-0.4264918337,-2.1274616873,-0.1492075714
 H,0,-2.8507407503,-2.40972176,-0.1409428262
 H,0,-5.1451245801,-1.4939357829,-0.0630514963
 H,0,-5.5207394239,0.9730856146,0.085794824
 H,0,-3.5375130398,2.4967615906,0.1543343402
 H,0,-1.2273950045,1.5609336903,0.0750117427
 Recover connectivity data from disk.
                           ----------------------------
                           !    Current Parameters    !
                           ! (Angstroms and Degrees)  !
 --------------------------                            --------------------------
 ! Name  Definition              Value                                          !
 --------------------------------------------------------------------------------
 ! R1    R(1,2)                  1.2255                                         !
 ! R2    R(2,3)                  1.4096                                         !
 ! R3    R(2,5)                  1.4469                                         !
 ! R4    R(3,4)                  1.4326                                         !
 ! R5    R(3,14)                 1.0106                                         !
 ! R6    R(4,15)                 1.1036                                         !
 ! R7    R(4,16)                 1.1082                                         !
 ! R8    R(4,17)                 1.0976                                         !
 ! R9    R(5,6)                  1.3182                                         !
 ! R10   R(5,18)                 1.1072                                         !
 ! R11   R(6,7)                  1.3098                                         !
 ! R12   R(7,8)                  1.4416                                         !
 ! R13   R(7,19)                 1.1074                                         !
 ! R14   R(8,9)                  1.4151                                         !
 ! R15   R(8,13)                 1.4188                                         !
 ! R16   R(9,10)                 1.3915                                         !
 ! R17   R(9,20)                 1.0939                                         !
 ! R18   R(10,11)                1.3967                                         !
 ! R19   R(10,21)                1.0939                                         !
 ! R20   R(11,12)                1.4025                                         !
 ! R21   R(11,22)                1.0917                                         !
 ! R22   R(12,13)                1.3865                                         !
 ! R23   R(12,23)                1.0938                                         !
 ! R24   R(13,24)                1.0913                                         !
 ! A1    A(1,2,3)              119.4738                                         !
 ! A2    A(1,2,5)              127.4903                                         !
 ! A3    A(3,2,5)              113.0285                                         !
 ! A4    A(2,3,4)              120.4171                                         !
 ! A5    A(2,3,14)             115.8919                                         !
 ! A6    A(4,3,14)             118.0784                                         !
 ! A7    A(3,4,15)             111.9942                                         !
 ! A8    A(3,4,16)             113.7884                                         !
 ! A9    A(3,4,17)             106.6377                                         !
 ! A10   A(15,4,16)            107.7622                                         !
 ! A11   A(15,4,17)            108.8676                                         !
 ! A12   A(16,4,17)            107.6177                                         !
 ! A13   A(2,5,6)              121.5362                                         !
 ! A14   A(2,5,18)             117.9255                                         !
 ! A15   A(6,5,18)             120.5375                                         !
 ! A16   A(5,6,7)              124.0764                                         !
 ! A17   A(6,7,8)              121.8062                                         !
 ! A18   A(6,7,19)             120.9999                                         !
 ! A19   A(8,7,19)             117.1939                                         !
 ! A20   A(7,8,9)              121.5218                                         !
 ! A21   A(7,8,13)             121.6977                                         !
 ! A22   A(9,8,13)             116.7806                                         !
 ! A23   A(8,9,10)             121.6188                                         !
 ! A24   A(8,9,20)             118.5758                                         !
 ! A25   A(10,9,20)            119.8055                                         !
 ! A26   A(9,10,11)            120.8277                                         !
 ! A27   A(9,10,21)            119.367                                          !
 ! A28   A(11,10,21)           119.8053                                         !
 ! A29   A(10,11,12)           118.3241                                         !
 ! A30   A(10,11,22)           120.8298                                         !
 ! A31   A(12,11,22)           120.8461                                         !
 ! A32   A(11,12,13)           121.2629                                         !
 ! A33   A(11,12,23)           119.5588                                         !
 ! A34   A(13,12,23)           119.1783                                         !
 ! A35   A(8,13,12)            121.1859                                         !
 ! A36   A(8,13,24)            117.0887                                         !
 ! A37   A(12,13,24)           121.7253                                         !
 ! D1    D(1,2,3,4)             12.5379                                         !
 ! D2    D(1,2,3,14)           165.623                                          !
 ! D3    D(5,2,3,4)           -168.3816                                         !
 ! D4    D(5,2,3,14)           -15.2966                                         !
 ! D5    D(1,2,5,6)             -1.261                                          !
 ! D6    D(1,2,5,18)           178.4198                                         !
 ! D7    D(3,2,5,6)            179.748                                          !
 ! D8    D(3,2,5,18)            -0.5712                                         !
 ! D9    D(2,3,4,15)          -140.583                                          !
 ! D10   D(2,3,4,16)            96.8961                                         !
 ! D11   D(2,3,4,17)           -21.59                                           !
 ! D12   D(14,3,4,15)           66.9043                                         !
 ! D13   D(14,3,4,16)          -55.6166                                         !
 ! D14   D(14,3,4,17)         -174.1027                                         !
 ! D15   D(2,5,6,7)           -179.89                                           !
 ! D16   D(18,5,6,7)             0.4375                                         !
 ! D17   D(5,6,7,8)            179.8395                                         !
 ! D18   D(5,6,7,19)            -0.1317                                         !
 ! D19   D(6,7,8,9)           -179.9821                                         !
 ! D20   D(6,7,8,13)             0.0139                                         !
 ! D21   D(19,7,8,9)            -0.01                                           !
 ! D22   D(19,7,8,13)          179.9861                                         !
 ! D23   D(7,8,9,10)           179.9907                                         !
 ! D24   D(7,8,9,20)            -0.0149                                         !
 ! D25   D(13,8,9,10)           -0.0055                                         !
 ! D26   D(13,8,9,20)          179.9888                                         !
 ! D27   D(7,8,13,12)         -179.991                                          !
 ! D28   D(7,8,13,24)            0.0221                                         !
 ! D29   D(9,8,13,12)            0.0053                                         !
 ! D30   D(9,8,13,24)         -179.9816                                         !
 ! D31   D(8,9,10,11)            0.0008                                         !
 ! D32   D(8,9,10,21)          179.9921                                         !
 ! D33   D(20,9,10,11)        -179.9934                                         !
 ! D34   D(20,9,10,21)          -0.0021                                         !
 ! D35   D(9,10,11,12)           0.0042                                         !
 ! D36   D(9,10,11,22)         179.9879                                         !
 ! D37   D(21,10,11,12)       -179.987                                          !
 ! D38   D(21,10,11,22)         -0.0033                                         !
 ! D39   D(10,11,12,13)         -0.0045                                         !
 ! D40   D(10,11,12,23)        179.9855                                         !
 ! D41   D(22,11,12,13)       -179.9882                                         !
 ! D42   D(22,11,12,23)          0.0019                                         !
 ! D43   D(11,12,13,8)          -0.0003                                         !
 ! D44   D(11,12,13,24)        179.9859                                         !
 ! D45   D(23,12,13,8)        -179.9904                                         !
 ! D46   D(23,12,13,24)         -0.0041                                         !
 --------------------------------------------------------------------------------
                          Input orientation:                          
 ---------------------------------------------------------------------
 Center     Atomic      Atomic             Coordinates (Angstroms)
 Number     Number       Type             X           Y           Z
 ---------------------------------------------------------------------
      1          8           0        2.873980    1.430256    0.009193
      2          6           0        2.900301    0.206071   -0.041163
      3          7           0        4.141964   -0.459750   -0.084295
      4          6           0        5.354911    0.248482    0.197514
      5          6           0        1.771424   -0.697986   -0.085010
      6          7           0        0.530724   -0.254003   -0.049140
      7          6           0       -0.526465   -1.026506   -0.083780
      8          6           0       -1.862880   -0.487884   -0.038283
      9          6           0       -3.000859   -1.328136   -0.075707
     10          6           0       -4.291682   -0.810437   -0.031719
     11          6           0       -4.508000    0.566861    0.051478
     12          6           0       -3.391426    1.414728    0.089466
     13          6           0       -2.101523    0.908197    0.046148
     14          1           0        4.116876   -1.452816    0.101401
     15          1           0        6.178020   -0.059571   -0.469990
     16          1           0        5.706424    0.134905    1.242350
     17          1           0        5.143140    1.312642    0.032093
     18          1           0        1.978726   -1.783304   -0.155586
     19          1           0       -0.426492   -2.127462   -0.149208
     20          1           0       -2.850741   -2.409722   -0.140943
     21          1           0       -5.145125   -1.493936   -0.063051
     22          1           0       -5.520739    0.973086    0.085795
     23          1           0       -3.537513    2.496762    0.154334
     24          1           0       -1.227395    1.560934    0.075012
 ---------------------------------------------------------------------
                    Distance matrix (angstroms):
                    1          2          3          4          5
     1  O    0.000000
     2  C    1.225502   0.000000
     3  N    2.277860   1.409576   0.000000
     4  C    2.754464   2.466551   1.432567   0.000000
     5  C    2.398732   1.446930   2.382481   3.717122   0.000000
     6  N    2.886343   2.413841   3.617268   4.856553   1.318236
     7  C    4.196111   3.641949   4.702706   6.024558   2.321255
     8  C    5.110710   4.813469   6.005087   7.259087   3.640672
     9  C    6.490737   6.097432   7.195422   8.507600   4.813717
    10  C    7.507934   7.263470   8.441098   9.707245   6.064383
    11  C    7.432419   7.417660   8.711730   9.869128   6.406999
    12  C    6.265939   6.408100   7.765039   8.824410   5.581132
    13  C    5.002953   5.051618   6.392920   7.487091   4.194848
    14  H    3.140923   2.062107   1.010590   2.106272   2.470964
    15  H    3.655938   3.316308   2.110552   1.103616   4.469214
    16  H    3.349828   3.086550   2.135681   1.108216   4.235541
    17  H    2.272321   2.502037   2.038939   1.097565   3.927442
    18  H    3.339999   2.195451   2.537021   3.956192   1.107190
    19  H    4.855466   4.065046   4.863771   6.260187   2.622662
    20  H    6.894954   6.318767   7.259719   8.632109   4.929257
    21  H    8.535933   8.223100   9.344518  10.646814   6.962232
    22  H    8.407507   8.456853   9.769841  10.900335   7.483135
    23  H    6.501211   6.836003   8.232392   9.172340   6.200687
    24  H    4.103984   4.345921   5.739213   6.712994   3.757824
                    6          7          8          9         10
     6  N    0.000000
     7  C    1.309813   0.000000
     8  C    2.405027   1.441592   0.000000
     9  C    3.691415   2.492724   1.415069   0.000000
    10  C    4.854432   3.771770   2.450135   1.391463   0.000000
    11  C    5.106141   4.290656   2.849070   2.424595   1.396662
    12  C    4.264637   3.767975   2.443912   2.775451   2.403436
    13  C    2.878977   2.498151   1.418845   2.413470   2.785060
    14  H    3.784218   4.666546   6.058720   7.121030   8.434110
    15  H    5.666293   6.784854   8.063864   9.274511  10.505738
    16  H    5.348557   6.477376   7.702094   8.927180  10.123193
    17  H    4.871895   6.134285   7.234028   8.562128   9.670956
    18  H    2.108745   2.617992   4.055837   5.000983   6.346639
    19  H    2.106211   1.107420   2.182597   2.696608   4.085101
    20  H    4.011216   2.705330   2.163300   1.093901   2.155447
    21  H    5.809723   4.642298   3.433057   2.150703   1.093854
    22  H    6.176096   5.382369   3.940782   3.416357   2.169181
    23  H    4.915145   4.640746   3.427770   3.869206   3.397197
    24  H    2.529899   2.685397   2.148100   3.393319   3.876164
                   11         12         13         14         15
    11  C    0.000000
    12  C    1.402518   0.000000
    13  C    2.430570   1.386471   0.000000
    14  H    8.858334   8.037261   6.651761   0.000000
    15  H   10.717060   9.698498   8.351875   2.552633   0.000000
    16  H   10.292677   9.259480   7.936807   2.519778   1.786710
    17  H    9.679930   8.535369   7.255957   2.950556   1.790540
    18  H    6.902446   6.255078   4.892167   2.178750   4.550184
    19  H    4.894727   4.625463   3.472623   4.600016   6.928106
    20  H    3.412269   3.869347   3.406598   7.037193   9.335417
    21  H    2.160076   3.399860   3.878876   9.263552  11.420885
    22  H    1.091713   2.174635   3.420062   9.938253  11.757392
    23  H    2.162623   1.093776   2.144134   8.613457  10.065595
    24  H    3.427988   2.169013   1.091329   6.135521   7.600213
                   16         17         18         19         20
    16  H    0.000000
    17  H    1.780190   0.000000
    18  H    4.419217   4.430984   0.000000
    19  H    6.683366   6.548891   2.429724   0.000000
    20  H    9.034029   8.819754   4.869945   2.440640   0.000000
    21  H   11.050488  10.664629   7.130326   4.761751   2.471625
    22  H   11.317657  10.669419   7.993618   5.968247   4.315517
    23  H    9.602734   8.761895   6.988841   5.581580   4.963106
    24  H    7.174544   6.375516   4.638568   3.781003   4.295113
                   21         22         23         24
    21  H    0.000000
    22  H    2.499887   0.000000
    23  H    4.307823   2.501894   0.000000
    24  H    4.969899   4.333415   2.493734   0.000000
 Stoichiometry    C10H11N2O(1-)
 Framework group  C1[X(C10H11N2O)]
 Deg. of freedom    66
 Full point group                 C1      NOp   1
 Largest Abelian subgroup         C1      NOp   1
 Largest concise Abelian subgroup C1      NOp   1
                         Standard orientation:                         
 ---------------------------------------------------------------------
 Center     Atomic      Atomic             Coordinates (Angstroms)
 Number     Number       Type             X           Y           Z
 ---------------------------------------------------------------------
      1          8           0        2.877551    1.399661   -0.088466
      2          6           0        2.880479    0.174343   -0.067450
      3          7           0        4.109096   -0.516537   -0.077085
      4          6           0        5.336720    0.183525    0.157650
      5          6           0        1.734512   -0.708930   -0.053575
      6          7           0        0.502629   -0.239913   -0.038256
      7          6           0       -0.569130   -0.992717   -0.023174
      8          6           0       -1.894868   -0.426845   -0.003347
      9          6           0       -3.048696   -1.245883    0.013259
     10          6           0       -4.329255   -0.701856    0.032601
     11          6           0       -4.519072    0.681843    0.036268
     12          6           0       -3.386499    1.508926    0.019874
     13          6           0       -2.106645    0.976101    0.000554
     14          1           0        4.066278   -1.496441    0.166323
     15          1           0        6.150205   -0.178594   -0.494332
     16          1           0        5.691732    0.124266    1.205790
     17          1           0        5.144177    1.240110   -0.068632
     18          1           0        1.920896   -1.800290   -0.061633
     19          1           0       -0.490320   -2.097328   -0.024713
     20          1           0       -2.919384   -2.332111    0.010563
     21          1           0       -5.195609   -1.369536    0.044905
     22          1           0       -5.523759    1.108712    0.051245
     23          1           0       -3.511774    2.595501    0.022159
     24          1           0       -1.220204    1.612537   -0.012512
 ---------------------------------------------------------------------
 Rotational constants (GHZ):           3.2091453           0.2702441           0.2498462
 Standard basis: def2TZVPP (5D, 7F)
 There are   633 symmetry adapted cartesian basis functions of A   symmetry.
 There are   557 symmetry adapted basis functions of A   symmetry.
   557 basis functions,   850 primitive gaussians,   633 cartesian basis functions
    47 alpha electrons       47 beta electrons
       nuclear repulsion energy       687.3508090995 Hartrees.
 NAtoms=   24 NActive=   24 NUniq=   24 SFac= 1.00D+00 NAtFMM=   60 NAOKFM=F Big=F
 Integral buffers will be    131072 words long.
 Raffenetti 2 integral format.
 Two-electron integral symmetry is turned on.
 Nuclear repulsion after empirical dispersion term =      687.3500159247 Hartrees.
 ------------------------------------------------------------------------------
 Polarizable Continuum Model (PCM)
 =================================
 Model                : PCM.
 Atomic radii         : UFF (Universal Force Field).
 Polarization charges : Total charges.
 Charge compensation  : None.
 Solution method      : On-the-fly selection.
 Cavity type          : Scaled VdW (van der Waals Surface) (Alpha=1.100).
 Cavity algorithm     : GePol (No added spheres)
                        Default sphere list used, NSphG=   24.
                        Lebedev-Laikov grids with approx.  5.0 points / Ang**2.
                        Smoothing algorithm: York/Karplus (Gamma=1.0000).
                        Polarization charges: spherical gaussians, with
                                              point-specific exponents (IZeta= 3).
                        Self-potential: point-specific (ISelfS= 7).
                        Self-field    : sphere-specific E.n sum rule (ISelfD= 2).
 Solvent              : TetraHydroFuran, Eps=   7.425700 Eps(inf)=   1.974025
 ------------------------------------------------------------------------------
 One-electron integrals computed using PRISM.
   1 Symmetry operations used in ECPInt.
 ECPInt:  NShTT=   21945 NPrTT=   61045 LenC2=   18527 LenP2D=   39203.
 LDataN:  DoStor=T MaxTD1= 6 Len=  172
 NBasis=   557 RedAO= T EigKep=  9.11D-06  NBF=   557
 NBsUse=   557 1.00D-06 EigRej= -1.00D+00 NBFU=   557
 Initial guess from the checkpoint file:  "vsa3_crest_conformers-3.chk"
 B after Tr=    -0.000000    0.000000    0.000000
         Rot=    1.000000   -0.000000    0.000000    0.000000 Ang=   0.00 deg.
 Requested convergence on RMS density matrix=1.00D-08 within 128 cycles.
 Requested convergence on MAX density matrix=1.00D-06.
 Requested convergence on             energy=1.00D-06.
 No special actions if energy rises.
 Inv3:  Mode=1 IEnd=    12301875.
 Iteration    1 A*A^-1 deviation from unit magnitude is 4.77D-15 for   2017.
 Iteration    1 A*A^-1 deviation from orthogonality  is 2.46D-15 for   2017   1002.
 Iteration    1 A^-1*A deviation from unit magnitude is 4.11D-15 for   2017.
 Iteration    1 A^-1*A deviation from orthogonality  is 2.08D-15 for   2019    875.
 Error on total polarization charges =  0.01542
 SCF Done:  E(RM062X) =  -572.492151235     A.U. after   13 cycles
            NFock= 13  Conv=0.66D-08     -V/T= 2.0053
 DoSCS=F DFT=T ScalE2(SS,OS)=  1.000000  1.000000
 Range of M.O.s used for correlation:     1   557
 NBasis=   557 NAE=    47 NBE=    47 NFC=     0 NFV=     0
 NROrb=    557 NOA=    47 NOB=    47 NVA=   510 NVB=   510

 **** Warning!!: The largest alpha MO coefficient is  0.48390972D+02

 NEqPCM:  Using equilibrium solvation (IEInf=0, Eps=   7.4257, EpsInf=   1.9740)
          Differentiating once with respect to electric field.
                with respect to dipole field.
          Electric field/nuclear overlap derivatives assumed to be zero.
          There are     3 degrees of freedom in the 1st order CPHF.  IDoFFX=0 NUNeed=     3.
      3 vectors produced by pass  0 Test12= 7.99D-13 3.33D-08 XBig12= 3.64D+02 1.68D+01.
 AX will form     3 AO Fock derivatives at one time.
      3 vectors produced by pass  1 Test12= 7.99D-13 3.33D-08 XBig12= 4.31D+01 1.31D+00.
      3 vectors produced by pass  2 Test12= 7.99D-13 3.33D-08 XBig12= 1.12D+01 8.98D-01.
      3 vectors produced by pass  3 Test12= 7.99D-13 3.33D-08 XBig12= 2.22D+00 3.82D-01.
      3 vectors produced by pass  4 Test12= 7.99D-13 3.33D-08 XBig12= 7.57D-01 2.52D-01.
      3 vectors produced by pass  5 Test12= 7.99D-13 3.33D-08 XBig12= 9.57D-02 6.46D-02.
      3 vectors produced by pass  6 Test12= 7.99D-13 3.33D-08 XBig12= 2.48D-02 5.83D-02.
      3 vectors produced by pass  7 Test12= 7.99D-13 3.33D-08 XBig12= 2.58D-03 1.10D-02.
      3 vectors produced by pass  8 Test12= 7.99D-13 3.33D-08 XBig12= 5.10D-04 5.71D-03.
      3 vectors produced by pass  9 Test12= 7.99D-13 3.33D-08 XBig12= 3.54D-05 1.41D-03.
      3 vectors produced by pass 10 Test12= 7.99D-13 3.33D-08 XBig12= 3.87D-06 4.33D-04.
      3 vectors produced by pass 11 Test12= 7.99D-13 3.33D-08 XBig12= 5.39D-07 9.34D-05.
      3 vectors produced by pass 12 Test12= 7.99D-13 3.33D-08 XBig12= 4.68D-08 4.17D-05.
      3 vectors produced by pass 13 Test12= 7.99D-13 3.33D-08 XBig12= 2.39D-09 1.18D-05.
      3 vectors produced by pass 14 Test12= 7.99D-13 3.33D-08 XBig12= 9.71D-11 1.89D-06.
      3 vectors produced by pass 15 Test12= 7.99D-13 3.33D-08 XBig12= 3.53D-12 3.92D-07.
      1 vectors produced by pass 16 Test12= 7.99D-13 3.33D-08 XBig12= 1.50D-13 9.86D-08.
 InvSVY:  IOpt=1 It=  1 EMax= 3.67D-15
 Solved reduced A of dimension    49 with     3 vectors.
 Isotropic polarizability for W=    0.000000      268.03 Bohr**3.
 End of Minotr F.D. properties file   721 does not exist.
 End of Minotr F.D. properties file   722 does not exist.
 End of Minotr F.D. properties file   788 does not exist.

 **********************************************************************

            Population analysis using the SCF Density.

 **********************************************************************

 Orbital symmetries:
       Occupied  (A) (A) (A) (A) (A) (A) (A) (A) (A) (A) (A) (A)
                 (A) (A) (A) (A) (A) (A) (A) (A) (A) (A) (A) (A)
                 (A) (A) (A) (A) (A) (A) (A) (A) (A) (A) (A) (A)
                 (A) (A) (A) (A) (A) (A) (A) (A) (A) (A) (A)
       Virtual   (A) (A) (A) (A) (A) (A) (A) (A) (A) (A) (A) (A)
                 (A) (A) (A) (A) (A) (A) (A) (A) (A) (A) (A) (A)
                 (A) (A) (A) (A) (A) (A) (A) (A) (A) (A) (A) (A)
                 (A) (A) (A) (A) (A) (A) (A) (A) (A) (A) (A) (A)
                 (A) (A) (A) (A) (A) (A) (A) (A) (A) (A) (A) (A)
                 (A) (A) (A) (A) (A) (A) (A) (A) (A) (A) (A) (A)
                 (A) (A) (A) (A) (A) (A) (A) (A) (A) (A) (A) (A)
                 (A) (A) (A) (A) (A) (A) (A) (A) (A) (A) (A) (A)
                 (A) (A) (A) (A) (A) (A) (A) (A) (A) (A) (A) (A)
                 (A) (A) (A) (A) (A) (A) (A) (A) (A) (A) (A) (A)
                 (A) (A) (A) (A) (A) (A) (A) (A) (A) (A) (A) (A)
                 (A) (A) (A) (A) (A) (A) (A) (A) (A) (A) (A) (A)
                 (A) (A) (A) (A) (A) (A) (A) (A) (A) (A) (A) (A)
                 (A) (A) (A) (A) (A) (A) (A) (A) (A) (A) (A) (A)
                 (A) (A) (A) (A) (A) (A) (A) (A) (A) (A) (A) (A)
                 (A) (A) (A) (A) (A) (A) (A) (A) (A) (A) (A) (A)
                 (A) (A) (A) (A) (A) (A) (A) (A) (A) (A) (A) (A)
                 (A) (A) (A) (A) (A) (A) (A) (A) (A) (A) (A) (A)
                 (A) (A) (A) (A) (A) (A) (A) (A) (A) (A) (A) (A)
                 (A) (A) (A) (A) (A) (A) (A) (A) (A) (A) (A) (A)
                 (A) (A) (A) (A) (A) (A) (A) (A) (A) (A) (A) (A)
                 (A) (A) (A) (A) (A) (A) (A) (A) (A) (A) (A) (A)
                 (A) (A) (A) (A) (A) (A) (A) (A) (A) (A) (A) (A)
                 (A) (A) (A) (A) (A) (A) (A) (A) (A) (A) (A) (A)
                 (A) (A) (A) (A) (A) (A) (A) (A) (A) (A) (A) (A)
                 (A) (A) (A) (A) (A) (A) (A) (A) (A) (A) (A) (A)
                 (A) (A) (A) (A) (A) (A) (A) (A) (A) (A) (A) (A)
                 (A) (A) (A) (A) (A) (A) (A) (A) (A) (A) (A) (A)
                 (A) (A) (A) (A) (A) (A) (A) (A) (A) (A) (A) (A)
                 (A) (A) (A) (A) (A) (A) (A) (A) (A) (A) (A) (A)
                 (A) (A) (A) (A) (A) (A) (A) (A) (A) (A) (A) (A)
                 (A) (A) (A) (A) (A) (A) (A) (A) (A) (A) (A) (A)
                 (A) (A) (A) (A) (A) (A) (A) (A) (A) (A) (A) (A)
                 (A) (A) (A) (A) (A) (A) (A) (A) (A) (A) (A) (A)
                 (A) (A) (A) (A) (A) (A) (A) (A) (A) (A) (A) (A)
                 (A) (A) (A) (A) (A) (A) (A) (A) (A) (A) (A) (A)
                 (A) (A) (A) (A) (A) (A) (A) (A) (A) (A) (A) (A)
                 (A) (A) (A) (A) (A) (A) (A) (A) (A) (A) (A) (A)
                 (A) (A) (A) (A) (A) (A) (A) (A) (A) (A) (A) (A)
                 (A) (A) (A) (A) (A) (A) (A) (A) (A) (A) (A) (A)
                 (A) (A) (A) (A) (A) (A) (A) (A) (A) (A) (A) (A)
                 (A) (A) (A) (A) (A) (A) (A) (A) (A) (A) (A) (A)
                 (A) (A) (A) (A) (A) (A)
 The electronic state is 1-A.
 Alpha  occ. eigenvalues --  -19.54500 -14.72293 -14.71118 -10.59167 -10.53741
 Alpha  occ. eigenvalues --  -10.52118 -10.52028 -10.51884 -10.51247 -10.51226
 Alpha  occ. eigenvalues --  -10.50742 -10.50668 -10.49596  -1.11342  -0.99077
 Alpha  occ. eigenvalues --   -0.98157  -0.92792  -0.83210  -0.81264  -0.78326
 Alpha  occ. eigenvalues --   -0.73148  -0.67094  -0.65621  -0.62109  -0.59463
 Alpha  occ. eigenvalues --   -0.55675  -0.54470  -0.52107  -0.49774  -0.49197
 Alpha  occ. eigenvalues --   -0.48179  -0.46793  -0.45679  -0.45392  -0.43595
 Alpha  occ. eigenvalues --   -0.43408  -0.42008  -0.41462  -0.38091  -0.37898
 Alpha  occ. eigenvalues --   -0.36669  -0.30082  -0.29102  -0.28514  -0.28267
 Alpha  occ. eigenvalues --   -0.27743  -0.16637
 Alpha virt. eigenvalues --    0.01974   0.04676   0.09398   0.10559   0.10813
 Alpha virt. eigenvalues --    0.12252   0.12750   0.14221   0.14995   0.15413
 Alpha virt. eigenvalues --    0.16131   0.16559   0.17308   0.17595   0.18268
 Alpha virt. eigenvalues --    0.18611   0.20246   0.20650   0.21062   0.23692
 Alpha virt. eigenvalues --    0.24300   0.25222   0.25679   0.26076   0.26629
 Alpha virt. eigenvalues --    0.27623   0.28778   0.29149   0.29611   0.30363
 Alpha virt. eigenvalues --    0.31173   0.31740   0.32303   0.34106   0.35316
 Alpha virt. eigenvalues --    0.35623   0.36211   0.37716   0.38070   0.38522
 Alpha virt. eigenvalues --    0.39118   0.39588   0.40885   0.41490   0.41859
 Alpha virt. eigenvalues --    0.43029   0.43745   0.44670   0.45070   0.45786
 Alpha virt. eigenvalues --    0.46189   0.46881   0.47005   0.47465   0.48283
 Alpha virt. eigenvalues --    0.48860   0.49555   0.50473   0.51675   0.52195
 Alpha virt. eigenvalues --    0.53075   0.53477   0.53894   0.54179   0.55746
 Alpha virt. eigenvalues --    0.56466   0.56607   0.57265   0.57932   0.58404
 Alpha virt. eigenvalues --    0.60177   0.61987   0.62776   0.63964   0.64794
 Alpha virt. eigenvalues --    0.65510   0.66254   0.67474   0.68238   0.68824
 Alpha virt. eigenvalues --    0.70462   0.70672   0.73062   0.73785   0.74164
 Alpha virt. eigenvalues --    0.74718   0.75780   0.75877   0.76149   0.77040
 Alpha virt. eigenvalues --    0.79170   0.79767   0.80860   0.81276   0.82011
 Alpha virt. eigenvalues --    0.83424   0.83448   0.85154   0.86480   0.86795
 Alpha virt. eigenvalues --    0.88734   0.89718   0.91016   0.91214   0.92859
 Alpha virt. eigenvalues --    0.94443   0.95525   0.96863   0.97087   0.98303
 Alpha virt. eigenvalues --    0.99726   1.01248   1.02119   1.02856   1.03264
 Alpha virt. eigenvalues --    1.03805   1.04560   1.04814   1.06124   1.07687
 Alpha virt. eigenvalues --    1.08416   1.09892   1.10030   1.11553   1.12407
 Alpha virt. eigenvalues --    1.13774   1.15613   1.16184   1.17161   1.19103
 Alpha virt. eigenvalues --    1.19955   1.20734   1.23063   1.24250   1.25083
 Alpha virt. eigenvalues --    1.26582   1.26813   1.27470   1.28348   1.28656
 Alpha virt. eigenvalues --    1.30062   1.31515   1.32818   1.33175   1.34356
 Alpha virt. eigenvalues --    1.35420   1.35737   1.36843   1.37754   1.38972
 Alpha virt. eigenvalues --    1.39275   1.41120   1.43073   1.43354   1.44010
 Alpha virt. eigenvalues --    1.45453   1.46202   1.47949   1.49229   1.49386
 Alpha virt. eigenvalues --    1.50865   1.51619   1.53542   1.53899   1.54344
 Alpha virt. eigenvalues --    1.56052   1.56549   1.57019   1.58999   1.59166
 Alpha virt. eigenvalues --    1.59453   1.59998   1.60763   1.61674   1.62190
 Alpha virt. eigenvalues --    1.64936   1.66018   1.66602   1.68652   1.69804
 Alpha virt. eigenvalues --    1.71582   1.73014   1.73176   1.74798   1.76597
 Alpha virt. eigenvalues --    1.77245   1.78557   1.80228   1.81064   1.83298
 Alpha virt. eigenvalues --    1.84228   1.84839   1.85421   1.86078   1.88190
 Alpha virt. eigenvalues --    1.89886   1.92537   1.94398   1.95343   1.98394
 Alpha virt. eigenvalues --    2.01862   2.02013   2.03166   2.03887   2.05816
 Alpha virt. eigenvalues --    2.06215   2.08901   2.09608   2.11081   2.13168
 Alpha virt. eigenvalues --    2.14471   2.17271   2.18722   2.23536   2.27106
 Alpha virt. eigenvalues --    2.27447   2.30009   2.32107   2.33553   2.34510
 Alpha virt. eigenvalues --    2.35651   2.39326   2.40687   2.40892   2.41716
 Alpha virt. eigenvalues --    2.44906   2.47050   2.47779   2.48649   2.51401
 Alpha virt. eigenvalues --    2.55154   2.58916   2.60317   2.60958   2.62719
 Alpha virt. eigenvalues --    2.66707   2.67335   2.68348   2.68557   2.71381
 Alpha virt. eigenvalues --    2.73071   2.73995   2.74801   2.76967   2.78087
 Alpha virt. eigenvalues --    2.78552   2.79861   2.80679   2.81008   2.81788
 Alpha virt. eigenvalues --    2.83556   2.84560   2.85171   2.85545   2.86209
 Alpha virt. eigenvalues --    2.88617   2.90785   2.91118   2.92007   2.92493
 Alpha virt. eigenvalues --    2.93600   2.94138   2.95050   2.95737   2.97094
 Alpha virt. eigenvalues --    2.97959   2.98420   2.99348   3.01230   3.01360
 Alpha virt. eigenvalues --    3.01983   3.03131   3.03616   3.04017   3.04796
 Alpha virt. eigenvalues --    3.06059   3.06895   3.08271   3.08652   3.09997
 Alpha virt. eigenvalues --    3.10618   3.11917   3.12114   3.13973   3.15039
 Alpha virt. eigenvalues --    3.15123   3.16498   3.17596   3.18825   3.18960
 Alpha virt. eigenvalues --    3.19883   3.21249   3.22013   3.23289   3.23912
 Alpha virt. eigenvalues --    3.24575   3.25845   3.27988   3.28333   3.29397
 Alpha virt. eigenvalues --    3.30501   3.31459   3.31898   3.32549   3.34161
 Alpha virt. eigenvalues --    3.35168   3.35659   3.35905   3.36560   3.37799
 Alpha virt. eigenvalues --    3.39247   3.40683   3.40935   3.41392   3.42333
 Alpha virt. eigenvalues --    3.43402   3.44879   3.45154   3.45785   3.46921
 Alpha virt. eigenvalues --    3.48653   3.49898   3.50332   3.51782   3.52027
 Alpha virt. eigenvalues --    3.52641   3.54021   3.56510   3.56841   3.57661
 Alpha virt. eigenvalues --    3.58062   3.59047   3.60459   3.61845   3.65018
 Alpha virt. eigenvalues --    3.65516   3.66618   3.67576   3.70264   3.71130
 Alpha virt. eigenvalues --    3.71696   3.73853   3.74523   3.74760   3.75746
 Alpha virt. eigenvalues --    3.76445   3.77827   3.78301   3.79338   3.80822
 Alpha virt. eigenvalues --    3.81862   3.82061   3.82390   3.82454   3.83797
 Alpha virt. eigenvalues --    3.86556   3.87052   3.87584   3.88657   3.91300
 Alpha virt. eigenvalues --    3.92363   3.93018   3.93755   3.94502   3.95473
 Alpha virt. eigenvalues --    3.97076   3.97575   3.99002   3.99912   4.00145
 Alpha virt. eigenvalues --    4.01991   4.04069   4.04431   4.05262   4.05856
 Alpha virt. eigenvalues --    4.06880   4.09683   4.11783   4.12803   4.13892
 Alpha virt. eigenvalues --    4.15115   4.16187   4.18667   4.18864   4.19448
 Alpha virt. eigenvalues --    4.19722   4.20982   4.22363   4.23504   4.23913
 Alpha virt. eigenvalues --    4.24539   4.25535   4.26666   4.28167   4.28424
 Alpha virt. eigenvalues --    4.29189   4.30478   4.32400   4.33480   4.34865
 Alpha virt. eigenvalues --    4.38843   4.39294   4.42814   4.46984   4.48803
 Alpha virt. eigenvalues --    4.49564   4.53698   4.54387   4.55625   4.57354
 Alpha virt. eigenvalues --    4.60814   4.61049   4.61677   4.63306   4.65103
 Alpha virt. eigenvalues --    4.68280   4.68774   4.69418   4.71658   4.72248
 Alpha virt. eigenvalues --    4.73502   4.74437   4.77330   4.80147   4.81411
 Alpha virt. eigenvalues --    4.82367   4.86411   4.88092   4.88499   4.91341
 Alpha virt. eigenvalues --    4.92554   4.93063   4.95571   4.95865   4.99161
 Alpha virt. eigenvalues --    5.00721   5.01719   5.02261   5.03066   5.04710
 Alpha virt. eigenvalues --    5.07289   5.10930   5.12959   5.13588   5.14535
 Alpha virt. eigenvalues --    5.16502   5.17696   5.22833   5.25075   5.25714
 Alpha virt. eigenvalues --    5.27472   5.27669   5.29016   5.29574   5.30568
 Alpha virt. eigenvalues --    5.30990   5.32176   5.36116   5.36415   5.37574
 Alpha virt. eigenvalues --    5.38290   5.39350   5.39668   5.41778   5.45653
 Alpha virt. eigenvalues --    5.46662   5.50650   5.53288   5.54970   5.56072
 Alpha virt. eigenvalues --    5.60288   5.61280   5.65215   5.66206   5.66736
 Alpha virt. eigenvalues --    5.72572   5.77137   5.77745   5.86212   5.87284
 Alpha virt. eigenvalues --    5.95140   5.98883   6.01643   6.08198   6.12568
 Alpha virt. eigenvalues --    6.15691   6.20700   6.35196   6.43229   6.46695
 Alpha virt. eigenvalues --    6.52009   6.66336   6.71509   6.87014   6.94195
 Alpha virt. eigenvalues --    7.13323   7.23466  22.84065  23.20314  23.26821
 Alpha virt. eigenvalues --   23.28260  23.32752  23.38264  23.48751  23.53684
 Alpha virt. eigenvalues --   23.70828  24.12228  32.91026  33.02200  44.18077
          Condensed to atoms (all electrons):
               1          2          3          4          5          6
     1  O    8.063665   0.708724  -0.150131  -0.020220  -0.118608  -0.006153
     2  C    0.708724   4.568028   0.295778  -0.056287   0.392684  -0.068256
     3  N   -0.150131   0.295778   6.789232   0.261397  -0.145770   0.005297
     4  C   -0.020220  -0.056287   0.261397   4.880841   0.002449  -0.000388
     5  C   -0.118608   0.392684  -0.145770   0.002449   5.359162   0.523226
     6  N   -0.006153  -0.068256   0.005297  -0.000388   0.523226   6.359974
     7  C    0.002802  -0.003952   0.000880   0.000083  -0.210323   0.634137
     8  C   -0.001370   0.000994  -0.000190  -0.000004   0.013220  -0.176483
     9  C    0.000001  -0.000017  -0.000002   0.000000  -0.000272   0.003834
    10  C   -0.000003  -0.000015  -0.000000   0.000000   0.000021  -0.000277
    11  C    0.000005   0.000015   0.000000  -0.000000  -0.000065   0.000731
    12  C   -0.000026  -0.000070  -0.000001   0.000000   0.000117  -0.001407
    13  C   -0.000889  -0.000774   0.000050  -0.000000   0.000459   0.034228
    14  H    0.006297  -0.045321   0.374224  -0.040283   0.000407  -0.000338
    15  H    0.000756   0.003077  -0.041963   0.412220  -0.000440   0.000022
    16  H    0.000301   0.006221  -0.057480   0.415116   0.003167   0.000004
    17  H    0.031862  -0.019223  -0.039050   0.402350   0.005133  -0.000133
    18  H    0.003985  -0.078360   0.011219   0.001151   0.425337  -0.057208
    19  H    0.000049  -0.005597   0.000434   0.000005  -0.011874  -0.063468
    20  H    0.000000  -0.000005   0.000000   0.000000  -0.000025  -0.000349
    21  H   -0.000000  -0.000000  -0.000000   0.000000  -0.000001   0.000011
    22  H    0.000000   0.000000   0.000000  -0.000000   0.000000   0.000001
    23  H   -0.000005  -0.000007  -0.000000  -0.000000   0.000013  -0.000193
    24  H    0.003631   0.001326   0.000162   0.000003  -0.003204   0.033036
               7          8          9         10         11         12
     1  O    0.002802  -0.001370   0.000001  -0.000003   0.000005  -0.000026
     2  C   -0.003952   0.000994  -0.000017  -0.000015   0.000015  -0.000070
     3  N    0.000880  -0.000190  -0.000002  -0.000000   0.000000  -0.000001
     4  C    0.000083  -0.000004   0.000000   0.000000  -0.000000   0.000000
     5  C   -0.210323   0.013220  -0.000272   0.000021  -0.000065   0.000117
     6  N    0.634137  -0.176483   0.003834  -0.000277   0.000731  -0.001407
     7  C    5.054529   0.383147  -0.100603   0.003453   0.000890  -0.000215
     8  C    0.383147   5.634547   0.436344   0.011842  -0.141990   0.099569
     9  C   -0.100603   0.436344   5.040592   0.517575  -0.037056  -0.086745
    10  C    0.003453   0.011842   0.517575   4.931248   0.469772   0.000493
    11  C    0.000890  -0.141990  -0.037056   0.469772   5.090717   0.387085
    12  C   -0.000215   0.099569  -0.086745   0.000493   0.387085   5.041821
    13  C   -0.063245  -0.109840   0.048597  -0.142382   0.068112   0.345691
    14  H    0.000049  -0.000018  -0.000001   0.000000  -0.000000   0.000000
    15  H   -0.000001  -0.000000  -0.000000   0.000000  -0.000000   0.000000
    16  H   -0.000016   0.000001   0.000000   0.000000  -0.000000   0.000000
    17  H   -0.000014   0.000006   0.000000   0.000000  -0.000000   0.000000
    18  H   -0.005270  -0.006558  -0.000291  -0.000048   0.000020  -0.000056
    19  H    0.417599  -0.100171  -0.010019  -0.003832   0.001545  -0.003259
    20  H   -0.002944  -0.032839   0.401774  -0.026071   0.004848  -0.002639
    21  H   -0.000178   0.005513  -0.030738   0.416659  -0.029515   0.005153
    22  H    0.000149  -0.000798   0.003917  -0.028310   0.421824  -0.031402
    23  H   -0.000564   0.013944  -0.001027   0.005182  -0.038820   0.419746
    24  H   -0.000747  -0.105143   0.009292  -0.005289   0.015224  -0.036141
              13         14         15         16         17         18
     1  O   -0.000889   0.006297   0.000756   0.000301   0.031862   0.003985
     2  C   -0.000774  -0.045321   0.003077   0.006221  -0.019223  -0.078360
     3  N    0.000050   0.374224  -0.041963  -0.057480  -0.039050   0.011219
     4  C   -0.000000  -0.040283   0.412220   0.415116   0.402350   0.001151
     5  C    0.000459   0.000407  -0.000440   0.003167   0.005133   0.425337
     6  N    0.034228  -0.000338   0.000022   0.000004  -0.000133  -0.057208
     7  C   -0.063245   0.000049  -0.000001  -0.000016  -0.000014  -0.005270
     8  C   -0.109840  -0.000018  -0.000000   0.000001   0.000006  -0.006558
     9  C    0.048597  -0.000001  -0.000000   0.000000   0.000000  -0.000291
    10  C   -0.142382   0.000000   0.000000   0.000000   0.000000  -0.000048
    11  C    0.068112  -0.000000  -0.000000  -0.000000  -0.000000   0.000020
    12  C    0.345691   0.000000   0.000000   0.000000   0.000000  -0.000056
    13  C    5.585434   0.000003   0.000000   0.000000   0.000001   0.002723
    14  H    0.000003   0.536706  -0.001880  -0.007298   0.008162   0.003581
    15  H    0.000000  -0.001880   0.583287  -0.046870  -0.022277  -0.000133
    16  H    0.000000  -0.007298  -0.046870   0.604053  -0.029903   0.000147
    17  H    0.000001   0.008162  -0.022277  -0.029903   0.531259  -0.000454
    18  H    0.002723   0.003581  -0.000133   0.000147  -0.000454   0.642562
    19  H    0.046954   0.000092   0.000000  -0.000001  -0.000003   0.026633
    20  H    0.015695   0.000000  -0.000000   0.000000  -0.000000   0.000110
    21  H   -0.001827   0.000000  -0.000000  -0.000000   0.000000  -0.000000
    22  H    0.004724  -0.000000  -0.000000  -0.000000  -0.000000   0.000000
    23  H   -0.033974   0.000000  -0.000000   0.000000   0.000000  -0.000001
    24  H    0.450520  -0.000004  -0.000000  -0.000000  -0.000010   0.000636
              19         20         21         22         23         24
     1  O    0.000049   0.000000  -0.000000   0.000000  -0.000005   0.003631
     2  C   -0.005597  -0.000005  -0.000000   0.000000  -0.000007   0.001326
     3  N    0.000434   0.000000  -0.000000   0.000000  -0.000000   0.000162
     4  C    0.000005   0.000000   0.000000  -0.000000  -0.000000   0.000003
     5  C   -0.011874  -0.000025  -0.000001   0.000000   0.000013  -0.003204
     6  N   -0.063468  -0.000349   0.000011   0.000001  -0.000193   0.033036
     7  C    0.417599  -0.002944  -0.000178   0.000149  -0.000564  -0.000747
     8  C   -0.100171  -0.032839   0.005513  -0.000798   0.013944  -0.105143
     9  C   -0.010019   0.401774  -0.030738   0.003917  -0.001027   0.009292
    10  C   -0.003832  -0.026071   0.416659  -0.028310   0.005182  -0.005289
    11  C    0.001545   0.004848  -0.029515   0.421824  -0.038820   0.015224
    12  C   -0.003259  -0.002639   0.005153  -0.031402   0.419746  -0.036141
    13  C    0.046954   0.015695  -0.001827   0.004724  -0.033974   0.450520
    14  H    0.000092   0.000000   0.000000  -0.000000   0.000000  -0.000004
    15  H    0.000000  -0.000000  -0.000000  -0.000000  -0.000000  -0.000000
    16  H   -0.000001   0.000000  -0.000000  -0.000000   0.000000  -0.000000
    17  H   -0.000003  -0.000000   0.000000  -0.000000   0.000000  -0.000010
    18  H    0.026633   0.000110  -0.000000   0.000000  -0.000001   0.000636
    19  H    0.674615   0.009866  -0.000051   0.000004  -0.000021   0.003037
    20  H    0.009866   0.521692  -0.003348  -0.000282   0.000054  -0.000021
    21  H   -0.000051  -0.003348   0.511129  -0.002641  -0.000288   0.000031
    22  H    0.000004  -0.000282  -0.002641   0.501694  -0.002760  -0.000136
    23  H   -0.000021   0.000054  -0.000288  -0.002760   0.513479  -0.006733
    24  H    0.003037  -0.000021   0.000031  -0.000136  -0.006733   0.502827
 Mulliken charges:
               1
     1  O   -0.524675
     2  C    0.301036
     3  N   -0.304087
     4  C   -0.258432
     5  C   -0.234813
     6  N   -0.219850
     7  C   -0.109644
     8  C    0.076275
     9  C   -0.195155
    10  C   -0.150018
    11  C   -0.213342
    12  C   -0.137715
    13  C   -0.250262
    14  H    0.165621
    15  H    0.114202
    16  H    0.112557
    17  H    0.132295
    18  H    0.030275
    19  H    0.017462
    20  H    0.114485
    21  H    0.130090
    22  H    0.134018
    23  H    0.131975
    24  H    0.137703
 Sum of Mulliken charges =  -1.00000
 Mulliken charges with hydrogens summed into heavy atoms:
               1
     1  O   -0.524675
     2  C    0.301036
     3  N   -0.138466
     4  C    0.100622
     5  C   -0.204539
     6  N   -0.219850
     7  C   -0.092182
     8  C    0.076275
     9  C   -0.080670
    10  C   -0.019928
    11  C   -0.079324
    12  C   -0.005740
    13  C   -0.112559
 Electronic spatial extent (au):  <R**2>=           4219.0065
 Charge=             -1.0000 electrons
 Dipole moment (field-independent basis, Debye):
    X=             -1.6276    Y=             -3.9385    Z=              0.8119  Tot=              4.3382
 Quadrupole moment (field-independent basis, Debye-Ang):
   XX=            -98.7785   YY=            -81.9308   ZZ=            -86.5597
   XY=            -11.5693   XZ=              2.9735   YZ=             -0.3600
 Traceless Quadrupole moment (field-independent basis, Debye-Ang):
   XX=             -9.6888   YY=              7.1589   ZZ=              2.5300
   XY=            -11.5693   XZ=              2.9735   YZ=             -0.3600
 Octapole moment (field-independent basis, Debye-Ang**2):
  XXX=             42.7386  YYY=             -8.9592  ZZZ=              0.7035  XYY=             -8.5518
  XXY=            -37.3594  XXZ=             11.7327  XZZ=             19.4081  YZZ=              2.6122
  YYZ=              1.2779  XYZ=             -1.8485
 Hexadecapole moment (field-independent basis, Debye-Ang**3):
 XXXX=          -5181.9348 YYYY=           -524.9032 ZZZZ=           -110.4896 XXXY=           -100.6085
 XXXZ=             37.6125 YYYX=            -41.7842 YYYZ=             -1.3055 ZZZX=              5.5014
 ZZZY=             -1.2541 XXYY=           -957.0386 XXZZ=           -971.2042 YYZZ=           -119.7602
 XXYZ=             -8.2596 YYXZ=              3.8847 ZZXY=              6.5500
 N-N= 6.873500159247D+02 E-N=-2.722467508856D+03  KE= 5.694549644642D+02
 There are a total of      550152 grid points.
 ElSum from          density=       93.9999946093
 ElSum from atomic densities=       92.9999827438
 Hirshfeld populations at iteration   1 (CA, CB, DipXYZ):
               1          2          3          4          5
     1  O    4.207602   4.207602   0.056645  -0.220315   0.005251
     2  C    2.954292   2.954292   0.084688  -0.032337   0.009485
     3  N    3.567512   3.567512   0.032498   0.019878   0.086656
     4  C    3.025664   3.025664  -0.021643  -0.041282   0.002858
     5  C    3.070043   3.070043  -0.012331  -0.017092  -0.002301
     6  N    3.586315   3.586315   0.007263  -0.165660  -0.001164
     7  C    3.045624   3.045624  -0.007485  -0.014752  -0.000061
     8  C    3.015855   3.015855   0.006542  -0.004619  -0.000357
     9  C    3.039273   3.039273   0.016518  -0.038709  -0.000551
    10  C    3.033583   3.033583  -0.045577  -0.032464   0.000496
    11  C    3.043847   3.043847  -0.041072   0.021834   0.000490
    12  C    3.032497   3.032497  -0.013625   0.054863   0.000074
    13  C    3.037154   3.037154   0.032420   0.011931  -0.000733
    14  H    0.446314   0.446314   0.017738  -0.184961   0.054637
    15  H    0.487349   0.487349   0.107354  -0.042348  -0.077254
    16  H    0.489215   0.489215   0.047265  -0.006050   0.123399
    17  H    0.487669   0.487669   0.019171   0.119277  -0.025986
    18  H    0.503084   0.503084   0.020772  -0.127713   0.000085
    19  H    0.499722   0.499722   0.006642  -0.123688  -0.000251
    20  H    0.486320   0.486320   0.011506  -0.148283  -0.000353
    21  H    0.483299   0.483299  -0.122817  -0.094593   0.001705
    22  H    0.485340   0.485340  -0.143372   0.061358   0.002095
    23  H    0.483198   0.483198  -0.016816   0.153885   0.000267
    24  H    0.489225   0.489225   0.082123   0.100719  -0.001284
       Tot  46.999997  46.999997   0.124407  -0.751120   0.177206

 Dip from Atomic Chgs             -0.764782  -0.798421   0.142234
         Total Dipole             -0.640375  -1.549541   0.319440

 Hirshfeld charges, spin densities, dipoles, and CM5 charges using IRadAn=      5:
              Q-H        S-H        Dx         Dy         Dz        Q-CM5   
     1  O   -0.415204   0.000000   0.056645  -0.220315   0.005251  -0.457324
     2  C    0.091415   0.000000   0.084688  -0.032337   0.009485   0.185359
     3  N   -0.135025   0.000000   0.032498   0.019878   0.086656  -0.491988
     4  C   -0.051327   0.000000  -0.021643  -0.041282   0.002858  -0.133672
     5  C   -0.140086   0.000000  -0.012331  -0.017092  -0.002301  -0.102101
     6  N   -0.172629   0.000000   0.007263  -0.165660  -0.001164  -0.374475
     7  C   -0.091248   0.000000  -0.007485  -0.014752  -0.000061  -0.059263
     8  C   -0.031711   0.000000   0.006542  -0.004619  -0.000357  -0.036750
     9  C   -0.078546   0.000000   0.016518  -0.038709  -0.000551  -0.130365
    10  C   -0.067166   0.000000  -0.045577  -0.032464   0.000496  -0.121445
    11  C   -0.087695   0.000000  -0.041072   0.021834   0.000490  -0.142313
    12  C   -0.064994   0.000000  -0.013625   0.054863   0.000074  -0.119062
    13  C   -0.074309   0.000000   0.032420   0.011931  -0.000733  -0.124273
    14  H    0.107372   0.000000   0.017738  -0.184961   0.054637   0.301370
    15  H    0.025302   0.000000   0.107354  -0.042348  -0.077254   0.083973
    16  H    0.021569   0.000000   0.047265  -0.006050   0.123399   0.079391
    17  H    0.024662   0.000000   0.019171   0.119277  -0.025986   0.093957
    18  H   -0.006167   0.000000   0.020772  -0.127713   0.000085   0.060663
    19  H    0.000556   0.000000   0.006642  -0.123688  -0.000251   0.063909
    20  H    0.027361   0.000000   0.011506  -0.148283  -0.000353   0.082808
    21  H    0.033402   0.000000  -0.122817  -0.094593   0.001705   0.087933
    22  H    0.029320   0.000000  -0.143372   0.061358   0.002095   0.083812
    23  H    0.033604   0.000000  -0.016816   0.153885   0.000267   0.088194
    24  H    0.021550   0.000000   0.082123   0.100719  -0.001284   0.081669
       Tot  -0.999995   0.000000   0.124407  -0.751120   0.177206  -0.999995
 Hirshfeld charges with hydrogens summed into heavy atoms:
              Q-H       Q-CM5   
     1  O   -0.415204  -0.457324
     2  C    0.091415   0.185359
     3  N   -0.027653  -0.190618
     4  C    0.020205   0.123649
     5  C   -0.146254  -0.041438
     6  N   -0.172629  -0.374475
     7  C   -0.090692   0.004646
     8  C   -0.031711  -0.036750
     9  C   -0.051185  -0.047558
    10  C   -0.033763  -0.033512
    11  C   -0.058375  -0.058501
    12  C   -0.031390  -0.030868
    13  C   -0.052759  -0.042604
 
 EQQ=  0.00000000000     EQD=  0.00000000000     EDD= 0.799753297736E-02
 EQQ+QD+DD= 0.799753297736E-02
 
  Exact polarizability:     507.210      -4.907     188.293      -1.120       0.057     108.598
 Approx polarizability:     370.380      -1.129     192.272      -2.002      -0.162     115.267
 Breneman (CHELPG) radii used.
 Read replacement radii for each type of atom:
 Atom Element Radius
    1     8    1.70
    2     6    1.50
    3     7    1.70
    4     6    1.50
    5     6    1.50
    6     7    1.70
    7     6    1.50
    8     6    1.50
    9     6    1.50
   10     6    1.50
   11     6    1.50
   12     6    1.50
   13     6    1.50
   14     1    1.45
   15     1    1.45
   16     1    1.45
   17     1    1.45
   18     1    1.45
   19     1    1.45
   20     1    1.45
   21     1    1.45
   22     1    1.45
   23     1    1.45
   24     1    1.45
 Generate Potential Derived Charges using the Breneman model, NDens= 1.
 Grid spacing= 0.300 Box extension= 2.800
 NStep X,Y,Z=   59     37     26   Total possible points=       56758
 Number of Points to Fit=   16250

 **********************************************************************

            Electrostatic Properties Using The SCF Density.

 **********************************************************************

       Atomic Center    1 is at   2.877551  1.399661 -0.088466
       Atomic Center    2 is at   2.880479  0.174343 -0.067450
       Atomic Center    3 is at   4.109096 -0.516537 -0.077085
       Atomic Center    4 is at   5.336720  0.183525  0.157650
       Atomic Center    5 is at   1.734512 -0.708930 -0.053575
       Atomic Center    6 is at   0.502629 -0.239913 -0.038256
       Atomic Center    7 is at  -0.569130 -0.992717 -0.023174
       Atomic Center    8 is at  -1.894868 -0.426845 -0.003347
       Atomic Center    9 is at  -3.048696 -1.245883  0.013259
       Atomic Center   10 is at  -4.329255 -0.701856  0.032601
       Atomic Center   11 is at  -4.519072  0.681843  0.036268
       Atomic Center   12 is at  -3.386499  1.508926  0.019874
       Atomic Center   13 is at  -2.106645  0.976101  0.000554
       Atomic Center   14 is at   4.066278 -1.496441  0.166323
       Atomic Center   15 is at   6.150205 -0.178594 -0.494332
       Atomic Center   16 is at   5.691732  0.124266  1.205790
       Atomic Center   17 is at   5.144177  1.240110 -0.068632
       Atomic Center   18 is at   1.920896 -1.800290 -0.061633
       Atomic Center   19 is at  -0.490320 -2.097328 -0.024713
       Atomic Center   20 is at  -2.919384 -2.332111  0.010563
       Atomic Center   21 is at  -5.195609 -1.369536  0.044905
       Atomic Center   22 is at  -5.523759  1.108712  0.051245
       Atomic Center   23 is at  -3.511774  2.595501  0.022159
       Atomic Center   24 is at  -1.220204  1.612537 -0.012512
 Evaluate density.
 Using the total density.
 Monte-Carlo method of calculating molar volume:
 based on  0.001 e/bohr**3 density envelope.
 Number of points per bohr**3 =   20 CutOff= 1.00D-04
 Using the SCF density.
 There are       395 points.  Will hold       395 in memory.
 LenV=  6441843265 MDV=  6442450944.
 Box volume = 7761.514 fraction occupied=0.203
 Integrated density= 8.0034719769577308D+01 error=-1.3965280230422692D+01
 Molar volume = 1571.952 bohr**3/mol (140.279 cm**3/mol)
 Recommended a0 for SCRF calculation =  4.70 angstrom (  8.88 bohr)
 Running external command "gaunbo7 R"
         input file       "/scratch/general/vast/u6067110/GAUSSSCRDIR/10754894-notchpeak.peaks/Gau-1229128.EIn"
         output file      "/scratch/general/vast/u6067110/GAUSSSCRDIR/10754894-notchpeak.peaks/Gau-1229128.EOu"
         message file     "/scratch/general/vast/u6067110/GAUSSSCRDIR/10754894-notchpeak.peaks/Gau-1229128.EMs"
         fchk file        "/scratch/general/vast/u6067110/GAUSSSCRDIR/10754894-notchpeak.peaks/Gau-1229128.EFC"
         mat. el file     "/scratch/general/vast/u6067110/GAUSSSCRDIR/10754894-notchpeak.peaks/Gau-1229128.EUF"

 Writing WrtUnf unformatted file "/scratch/general/vast/u6067110/GAUSSSCRDIR/10754894-notchpeak.peaks/Gau-1229128.EUF"
 Gaussian matrix elements                                         Version   2 NLab=11 Len12L=8 Len4L=8
 Write SHELL TO ATOM MAP                   from file      0 offset           0 length                 209 to matrix element file.
 Write SHELL TYPES                         from file      0 offset           0 length                 209 to matrix element file.
 Write NUMBER OF PRIMITIVES PER SHELL      from file      0 offset           0 length                 209 to matrix element file.
 Write PRIMITIVE EXPONENTS                 from file      0 offset           0 length                 348 to matrix element file.
 Write CONTRACTION COEFFICIENTS            from file      0 offset           0 length                 348 to matrix element file.
 Write P(S=P) CONTRACTION COEFFICIENTS     from file      0 offset           0 length                 348 to matrix element file.
 Write COORDINATES OF EACH SHELL           from file      0 offset           0 length                 627 to matrix element file.
 Write BONDS PER ATOM                      from file      0 offset           0 length                  24 to matrix element file.
 Write BONDED ATOMS                        from file      0 offset           0 length                  48 to matrix element file.
 Write BOND TYPES                          from file      0 offset           0 length                  48 to matrix element file.
 Write ONIOM CHARGE/MULT                   from file      0 offset           0 length                  32 to matrix element file.
 Write ONIOM ATOM LAYERS                   from file      0 offset           0 length                  24 to matrix element file.
 Write ONIOM ATOM MODIFIERS                from file      0 offset           0 length                  24 to matrix element file.
 Write ONIOM ATOM TYPES                    from file      0 offset           0 length                  24 to matrix element file.
 Write ONIOM LINK ATOMS                    from file      0 offset           0 length                  24 to matrix element file.
 Write ONIOM LINK CHARGES                  from file      0 offset           0 length                  24 to matrix element file.
 Write ONIOM LINK DISTANCES                from file      0 offset           0 length                  96 to matrix element file.
 Write SYMINF INTS                         from file      0 offset           0 length                  26 to matrix element file.
 Write ROTTR TO SO                         from file      0 offset           0 length                  12 to matrix element file.
 Write GAUSSIAN SCALARS                    from file    501 offset           0 to matrix element file.
 Write OPTIMIZATION FLAGS                  from file      0 offset           0 length                  24 to matrix element file.
 Write INTEGER ISO                         from file      0 offset           0 length                  24 to matrix element file.
 Write INTEGER SPIN                        from file      0 offset           0 length                  24 to matrix element file.
 Write REAL ZEFFECTIVE                     from file      0 offset           0 length                  24 to matrix element file.
 Write REAL QUADRUPOLEMOMENT               from file      0 offset           0 length                  24 to matrix element file.
 Write REAL GFACTOR                        from file      0 offset           0 length                  24 to matrix element file.
 Write REAL ZNUCLEAR                       from file      0 offset           0 length                  24 to matrix element file.
 Write MULLIKEN CHARGES                    from file      0 offset           0 length                  24 to matrix element file.
 Write TYPE 6 CHARGES                      from file      0 offset           0 length                  24 to matrix element file.
 Write TYPE 7 CHARGES                      from file      0 offset           0 length                  24 to matrix element file.
 Write NUCLEAR GRADIENT                    from file  10584 offset           0 length                  72 to matrix element file.
 Array NUCLEAR FORCE CONSTANTS              on  file  10585 does not exist.
 Write ELECTRIC DIPOLE MOMENT              from file      0 offset           0 length                   3 to matrix element file.
 Write ELECTRIC DIPOLE POLARIZABILITY      from file      0 offset           0 length                   6 to matrix element file.
 Write ELECTRIC DIPOLE HYPERPOLARIZABILITY from file      0 offset           0 length                  10 to matrix element file.
 Write NON-ADIABATIC COUPLING              from file  10810 offset           0 length                  72 to matrix element file.
 Write RED INT COORD DIMS                  from file      0 offset           0 length                   4 to matrix element file.
 Write RED INT COORD ATOMS                 from file      0 offset           0 length                 428 to matrix element file.
 Write RED INT COORD VALS                  from file      0 offset           0 length                 107 to matrix element file.
 Write RED INT COORD IFLAGS                from file      0 offset           0 length                 107 to matrix element file.
 Write RED INT COORD RFLAGS                from file      0 offset           0 length                 107 to matrix element file.
 Write RED INT COORD CONSTRAINT            from file      0 offset           0 length                 214 to matrix element file.
 Write FINITE EM FIELD                     from file  10521 offset           0 length                  35 to matrix element file.
 Write OVERLAP                             from file  10514 offset           0 length              155403 to matrix element file.
 Write CORE HAMILTONIAN ALPHA              from file  10515 offset           0 length              155403 to matrix element file.
 Write CORE HAMILTONIAN BETA               from file  10515 offset      155403 length              155403 to matrix element file.
 Write KINETIC ENERGY                      from file  10516 offset           0 length              155403 to matrix element file.
 Write ORTHOGONAL BASIS                    from file  10685 offset           0 length              310249 to matrix element file.
 Write DIPOLE INTEGRALS                    from file  10518 offset           0 length              466209 to matrix element file.
 Array DIP VEL INTEGRALS                    on  file  10572 does not exist.
 Array R X DEL INTEGRALS                    on  file  10572 does not exist.
 Write ALPHA ORBITAL ENERGIES              from file      0 offset           0 length                 557 to matrix element file.
 Write ALPHA MO COEFFICIENTS               from file  10524 offset           0 length              310249 to matrix element file.
 Write ALPHA DENSITY MATRIX                from file      0 offset           0 length              155403 to matrix element file.
 Write ALPHA FOCK MATRIX                   from file  10536 offset           0 length              155403 to matrix element file.
 Write ENERGY-WEIGHTED DENSITY             from file  10571 offset           0 length              155403 to matrix element file.
 Write ALPHA SCF DENSITY MATRIX            from file      0 offset           0 length              155403 to matrix element file.
 Write TRANS MO COEFFICIENTS               from file  10548 offset           0 length              310249 to matrix element file.
 No 2e integrals to process.
 Perform NBO analysis...executing G16NBO...

 *********************************** NBO 7.0 ***********************************
             N A T U R A L   A T O M I C   O R B I T A L   A N D
          N A T U R A L   B O N D   O R B I T A L   A N A L Y S I S
 **************************** Anita Orendt (S101720) ***************************
  (c) Copyright 1996-2021 Board of Regents of the University of Wisconsin System
      on behalf of the Theoretical Chemistry Institute.  All rights reserved.

          Cite this program [NBO 7.0.10 (8-Feb-2021)] as:

          NBO 7.0.  E. D. Glendening, J. K. Badenhoop, A. E. Reed,
          J. E. Carpenter, J. A. Bohmann, C. M. Morales, P. Karafiloglou,
          C. R. Landis, and F. Weinhold, Theoretical Chemistry Institute,
          University of Wisconsin, Madison, WI (2018)

 Filename set to /scratch/general/vast/u6067110/GAUSSSCRDIR/10754894-

 Job title: vsa3_crest_conformers-3


 NATURAL POPULATIONS:  Natural atomic orbital occupancies

  NAO Atom No lang   Type(AO)    Occupancy      Energy
 -------------------------------------------------------
   1    O  1  s      Cor( 1s)     2.00000     -19.54481
   2    O  1  s      Val( 2s)     1.69452      -0.69991
   3    O  1  s      Ryd( 3s)     0.00033       1.45088
   4    O  1  s      Ryd( 4s)     0.00001       6.89852
   5    O  1  s      Ryd( 5s)     0.00000      39.77495
   6    O  1  px     Val( 2p)     1.86674      -0.28115
   7    O  1  px     Ryd( 3p)     0.00255       0.84082
   8    O  1  px     Ryd( 4p)     0.00003       3.31933
   9    O  1  py     Val( 2p)     1.55379      -0.26315
  10    O  1  py     Ryd( 3p)     0.00100       0.66508
  11    O  1  py     Ryd( 4p)     0.00015       3.93141
  12    O  1  pz     Val( 2p)     1.59648      -0.25082
  13    O  1  pz     Ryd( 3p)     0.00232       0.68451
  14    O  1  pz     Ryd( 4p)     0.00001       2.99439
  15    O  1  dxy    Ryd( 3d)     0.00341       2.19420
  16    O  1  dxy    Ryd( 4d)     0.00003       6.82143
  17    O  1  dxz    Ryd( 3d)     0.00016       1.72039
  18    O  1  dxz    Ryd( 4d)     0.00000       6.36043
  19    O  1  dyz    Ryd( 3d)     0.00474       1.97606
  20    O  1  dyz    Ryd( 4d)     0.00002       6.59291
  21    O  1  dx2y2  Ryd( 3d)     0.00658       2.19275
  22    O  1  dx2y2  Ryd( 4d)     0.00000       6.76957
  23    O  1  dz2    Ryd( 3d)     0.00222       1.92320
  24    O  1  dz2    Ryd( 4d)     0.00000       6.60815
  25    O  1  f(0)   Ryd( 4f)     0.00005       5.53269
  26    O  1  f(c1)  Ryd( 4f)     0.00000       5.32861
  27    O  1  f(s1)  Ryd( 4f)     0.00005       5.87116
  28    O  1  f(c2)  Ryd( 4f)     0.00014       5.71902
  29    O  1  f(s2)  Ryd( 4f)     0.00000       5.53821
  30    O  1  f(c3)  Ryd( 4f)     0.00018       6.22437
  31    O  1  f(s3)  Ryd( 4f)     0.00013       6.03028

  32    C  2  s      Cor( 1s)     1.99999     -10.59157
  33    C  2  s      Val( 2s)     0.83344      -0.05562
  34    C  2  s      Ryd( 3s)     0.00483       1.48002
  35    C  2  s      Ryd( 4s)     0.00019       1.65896
  36    C  2  s      Ryd( 5s)     0.00000      22.34256
  37    C  2  px     Val( 2p)     0.90557       0.03337
  38    C  2  px     Ryd( 3p)     0.00614       1.35792
  39    C  2  px     Ryd( 4p)     0.00025       1.44284
  40    C  2  py     Val( 2p)     0.81762       0.08637
  41    C  2  py     Ryd( 3p)     0.01483       1.28279
  42    C  2  py     Ryd( 4p)     0.00019       1.36273
  43    C  2  pz     Val( 2p)     0.80733      -0.06213
  44    C  2  pz     Ryd( 3p)     0.00232       0.90050
  45    C  2  pz     Ryd( 4p)     0.00021       1.05769
  46    C  2  dxy    Ryd( 4d)     0.00171       3.87813
  47    C  2  dxy    Ryd( 3d)     0.00039       3.14608
  48    C  2  dxz    Ryd( 4d)     0.00120       2.57797
  49    C  2  dxz    Ryd( 3d)     0.00016       2.19455
  50    C  2  dyz    Ryd( 4d)     0.00233       2.79246
  51    C  2  dyz    Ryd( 3d)     0.00021       2.23637
  52    C  2  dx2y2  Ryd( 4d)     0.00034       3.49466
  53    C  2  dx2y2  Ryd( 3d)     0.00067       3.42665
  54    C  2  dz2    Ryd( 4d)     0.00015       3.28098
  55    C  2  dz2    Ryd( 3d)     0.00015       2.64764
  56    C  2  f(0)   Ryd( 4f)     0.00022       3.39079
  57    C  2  f(c1)  Ryd( 4f)     0.00020       3.44124
  58    C  2  f(s1)  Ryd( 4f)     0.00021       3.50519
  59    C  2  f(c2)  Ryd( 4f)     0.00003       3.42293
  60    C  2  f(s2)  Ryd( 4f)     0.00001       3.39940
  61    C  2  f(c3)  Ryd( 4f)     0.00011       4.16431
  62    C  2  f(s3)  Ryd( 4f)     0.00036       3.84266

  63    N  3  s      Cor( 1s)     1.99999     -14.72277
  64    N  3  s      Val( 2s)     1.28966      -0.45389
  65    N  3  s      Ryd( 3s)     0.00117       1.81222
  66    N  3  s      Ryd( 4s)     0.00002       4.28315
  67    N  3  s      Ryd( 5s)     0.00000      27.09349
  68    N  3  px     Val( 2p)     1.24167      -0.17238
  69    N  3  px     Ryd( 3p)     0.00199       0.95476
  70    N  3  px     Ryd( 4p)     0.00013       3.14829
  71    N  3  py     Val( 2p)     1.34668      -0.20041
  72    N  3  py     Ryd( 3p)     0.00278       0.95570
  73    N  3  py     Ryd( 4p)     0.00011       2.99897
  74    N  3  pz     Val( 2p)     1.74956      -0.26469
  75    N  3  pz     Ryd( 3p)     0.00564       0.59889
  76    N  3  pz     Ryd( 4p)     0.00016       2.42399
  77    N  3  dxy    Ryd( 3d)     0.00206       2.07614
  78    N  3  dxy    Ryd( 4d)     0.00006       5.24849
  79    N  3  dxz    Ryd( 3d)     0.00083       1.71597
  80    N  3  dxz    Ryd( 4d)     0.00010       4.84591
  81    N  3  dyz    Ryd( 3d)     0.00134       1.61253
  82    N  3  dyz    Ryd( 4d)     0.00004       4.96018
  83    N  3  dx2y2  Ryd( 3d)     0.00153       2.39350
  84    N  3  dx2y2  Ryd( 4d)     0.00013       5.57839
  85    N  3  dz2    Ryd( 3d)     0.00211       2.32705
  86    N  3  dz2    Ryd( 4d)     0.00001       5.10479
  87    N  3  f(0)   Ryd( 4f)     0.00052       4.48057
  88    N  3  f(c1)  Ryd( 4f)     0.00025       4.47348
  89    N  3  f(s1)  Ryd( 4f)     0.00026       4.44401
  90    N  3  f(c2)  Ryd( 4f)     0.00004       4.56419
  91    N  3  f(s2)  Ryd( 4f)     0.00002       4.57534
  92    N  3  f(c3)  Ryd( 4f)     0.00002       5.02461
  93    N  3  f(s3)  Ryd( 4f)     0.00030       5.03839

  94    C  4  s      Cor( 1s)     1.99999     -10.53730
  95    C  4  s      Val( 2s)     1.08800      -0.21294
  96    C  4  s      Ryd( 4s)     0.00213       1.41862
  97    C  4  s      Ryd( 3s)     0.00002       1.39032
  98    C  4  s      Ryd( 5s)     0.00000      22.05660
  99    C  4  px     Val( 2p)     0.98558      -0.05378
 100    C  4  px     Ryd( 3p)     0.00194       0.80863
 101    C  4  px     Ryd( 4p)     0.00011       1.51442
 102    C  4  py     Val( 2p)     1.14885      -0.09027
 103    C  4  py     Ryd( 3p)     0.00168       0.77726
 104    C  4  py     Ryd( 4p)     0.00008       1.48277
 105    C  4  pz     Val( 2p)     1.18346      -0.09335
 106    C  4  pz     Ryd( 3p)     0.00157       0.77838
 107    C  4  pz     Ryd( 4p)     0.00024       1.48308
 108    C  4  dxy    Ryd( 3d)     0.00066       2.70715
 109    C  4  dxy    Ryd( 4d)     0.00010       3.29936
 110    C  4  dxz    Ryd( 3d)     0.00164       2.09845
 111    C  4  dxz    Ryd( 4d)     0.00007       3.27337
 112    C  4  dyz    Ryd( 3d)     0.00075       1.93259
 113    C  4  dyz    Ryd( 4d)     0.00003       3.15922
 114    C  4  dx2y2  Ryd( 3d)     0.00097       2.27892
 115    C  4  dx2y2  Ryd( 4d)     0.00013       3.29821
 116    C  4  dz2    Ryd( 3d)     0.00152       2.31107
 117    C  4  dz2    Ryd( 4d)     0.00005       3.44800
 118    C  4  f(0)   Ryd( 4f)     0.00020       3.57462
 119    C  4  f(c1)  Ryd( 4f)     0.00020       3.57464
 120    C  4  f(s1)  Ryd( 4f)     0.00005       3.39386
 121    C  4  f(c2)  Ryd( 4f)     0.00003       3.51653
 122    C  4  f(s2)  Ryd( 4f)     0.00003       3.54461
 123    C  4  f(c3)  Ryd( 4f)     0.00005       3.69743
 124    C  4  f(s3)  Ryd( 4f)     0.00023       3.62250

 125    C  5  s      Cor( 1s)     1.99999     -10.49586
 126    C  5  s      Val( 2s)     0.94960      -0.09274
 127    C  5  s      Ryd( 3s)     0.00509       1.17660
 128    C  5  s      Ryd( 4s)     0.00022       2.01300
 129    C  5  s      Ryd( 5s)     0.00000      20.74563
 130    C  5  px     Val( 2p)     0.93375       0.03644
 131    C  5  px     Ryd( 3p)     0.00503       1.00880
 132    C  5  px     Ryd( 4p)     0.00046       1.83623
 133    C  5  py     Val( 2p)     1.09786      -0.00743
 134    C  5  py     Ryd( 3p)     0.00362       0.97871
 135    C  5  py     Ryd( 4p)     0.00094       1.79662
 136    C  5  pz     Val( 2p)     1.27634      -0.09577
 137    C  5  pz     Ryd( 3p)     0.00928       0.52030
 138    C  5  pz     Ryd( 4p)     0.00021       1.45943
 139    C  5  dxy    Ryd( 3d)     0.00145       3.50992
 140    C  5  dxy    Ryd( 4d)     0.00027       3.73619
 141    C  5  dxz    Ryd( 3d)     0.00066       2.16937
 142    C  5  dxz    Ryd( 4d)     0.00019       2.74338
 143    C  5  dyz    Ryd( 3d)     0.00024       1.97380
 144    C  5  dyz    Ryd( 4d)     0.00006       2.72796
 145    C  5  dx2y2  Ryd( 3d)     0.00061       2.87648
 146    C  5  dx2y2  Ryd( 4d)     0.00041       3.94340
 147    C  5  dz2    Ryd( 3d)     0.00084       2.72436
 148    C  5  dz2    Ryd( 4d)     0.00005       3.32164
 149    C  5  f(0)   Ryd( 4f)     0.00054       3.28826
 150    C  5  f(c1)  Ryd( 4f)     0.00028       3.49637
 151    C  5  f(s1)  Ryd( 4f)     0.00039       3.38688
 152    C  5  f(c2)  Ryd( 4f)     0.00005       3.31894
 153    C  5  f(s2)  Ryd( 4f)     0.00002       3.37071
 154    C  5  f(c3)  Ryd( 4f)     0.00015       4.02335
 155    C  5  f(s3)  Ryd( 4f)     0.00043       3.96851

 156    N  6  s      Cor( 1s)     1.99999     -14.71109
 157    N  6  s      Val( 2s)     1.32198      -0.36995
 158    N  6  s      Ryd( 3s)     0.00334       1.12172
 159    N  6  s      Ryd( 4s)     0.00007       4.16075
 160    N  6  s      Ryd( 5s)     0.00000      29.14252
 161    N  6  px     Val( 2p)     1.22422      -0.09079
 162    N  6  px     Ryd( 3p)     0.00246       1.18090
 163    N  6  px     Ryd( 4p)     0.00009       3.58312
 164    N  6  py     Val( 2p)     1.68834      -0.21177
 165    N  6  py     Ryd( 3p)     0.00807       0.77813
 166    N  6  py     Ryd( 4p)     0.00015       3.28308
 167    N  6  pz     Val( 2p)     1.12477      -0.14871
 168    N  6  pz     Ryd( 3p)     0.00096       0.63147
 169    N  6  pz     Ryd( 4p)     0.00002       2.43384
 170    N  6  dxy    Ryd( 3d)     0.00574       2.17520
 171    N  6  dxy    Ryd( 4d)     0.00013       5.40734
 172    N  6  dxz    Ryd( 3d)     0.00060       1.65273
 173    N  6  dxz    Ryd( 4d)     0.00022       4.87933
 174    N  6  dyz    Ryd( 3d)     0.00276       1.46646
 175    N  6  dyz    Ryd( 4d)     0.00001       4.71748
 176    N  6  dx2y2  Ryd( 3d)     0.00316       2.29963
 177    N  6  dx2y2  Ryd( 4d)     0.00020       5.34518
 178    N  6  dz2    Ryd( 3d)     0.00433       1.85488
 179    N  6  dz2    Ryd( 4d)     0.00002       5.05926
 180    N  6  f(0)   Ryd( 4f)     0.00018       4.35949
 181    N  6  f(c1)  Ryd( 4f)     0.00024       4.60687
 182    N  6  f(s1)  Ryd( 4f)     0.00011       4.29193
 183    N  6  f(c2)  Ryd( 4f)     0.00011       4.44123
 184    N  6  f(s2)  Ryd( 4f)     0.00001       4.53325
 185    N  6  f(c3)  Ryd( 4f)     0.00023       5.08569
 186    N  6  f(s3)  Ryd( 4f)     0.00037       5.02870

 187    C  7  s      Cor( 1s)     1.99999     -10.50658
 188    C  7  s      Val( 2s)     0.91822      -0.07459
 189    C  7  s      Ryd( 3s)     0.00534       1.25988
 190    C  7  s      Ryd( 4s)     0.00019       1.92317
 191    C  7  s      Ryd( 5s)     0.00000      20.83062
 192    C  7  px     Val( 2p)     0.94221       0.03618
 193    C  7  px     Ryd( 3p)     0.00541       1.07778
 194    C  7  px     Ryd( 4p)     0.00023       1.87394
 195    C  7  py     Val( 2p)     1.08245       0.00000
 196    C  7  py     Ryd( 3p)     0.00388       1.10400
 197    C  7  py     Ryd( 4p)     0.00110       1.62682
 198    C  7  pz     Val( 2p)     1.16817      -0.08593
 199    C  7  pz     Ryd( 3p)     0.00664       0.59596
 200    C  7  pz     Ryd( 4p)     0.00036       1.37607
 201    C  7  dxy    Ryd( 4d)     0.00071       3.62998
 202    C  7  dxy    Ryd( 3d)     0.00034       3.38631
 203    C  7  dxz    Ryd( 4d)     0.00048       2.59208
 204    C  7  dxz    Ryd( 3d)     0.00002       2.31868
 205    C  7  dyz    Ryd( 4d)     0.00024       2.46639
 206    C  7  dyz    Ryd( 3d)     0.00004       2.30962
 207    C  7  dx2y2  Ryd( 4d)     0.00094       3.18612
 208    C  7  dx2y2  Ryd( 3d)     0.00047       3.68062
 209    C  7  dz2    Ryd( 4d)     0.00069       3.24423
 210    C  7  dz2    Ryd( 3d)     0.00008       2.91815
 211    C  7  f(0)   Ryd( 4f)     0.00043       3.30964
 212    C  7  f(c1)  Ryd( 4f)     0.00026       3.48395
 213    C  7  f(s1)  Ryd( 4f)     0.00036       3.40149
 214    C  7  f(c2)  Ryd( 4f)     0.00001       3.33705
 215    C  7  f(s2)  Ryd( 4f)     0.00002       3.41007
 216    C  7  f(c3)  Ryd( 4f)     0.00014       4.05818
 217    C  7  f(s3)  Ryd( 4f)     0.00037       3.95602

 218    C  8  s      Cor( 1s)     1.99999     -10.52102
 219    C  8  s      Val( 2s)     0.93553      -0.08539
 220    C  8  s      Ryd( 3s)     0.00059       1.33043
 221    C  8  s      Ryd( 4s)     0.00006       1.93380
 222    C  8  s      Ryd( 5s)     0.00000      19.67878
 223    C  8  px     Val( 2p)     1.06268       0.01416
 224    C  8  px     Ryd( 3p)     0.00688       1.27105
 225    C  8  px     Ryd( 4p)     0.00012       2.49417
 226    C  8  py     Val( 2p)     1.06376       0.01241
 227    C  8  py     Ryd( 3p)     0.00366       1.20403
 228    C  8  py     Ryd( 4p)     0.00013       2.25547
 229    C  8  pz     Val( 2p)     0.97629      -0.07663
 230    C  8  pz     Ryd( 3p)     0.00155       0.69512
 231    C  8  pz     Ryd( 4p)     0.00008       1.47372
 232    C  8  dxy    Ryd( 3d)     0.00077       3.37801
 233    C  8  dxy    Ryd( 4d)     0.00044       4.24275
 234    C  8  dxz    Ryd( 3d)     0.00076       2.25613
 235    C  8  dxz    Ryd( 4d)     0.00004       2.75330
 236    C  8  dyz    Ryd( 3d)     0.00023       2.25825
 237    C  8  dyz    Ryd( 4d)     0.00010       2.72482
 238    C  8  dx2y2  Ryd( 3d)     0.00069       3.35527
 239    C  8  dx2y2  Ryd( 4d)     0.00046       4.23519
 240    C  8  dz2    Ryd( 3d)     0.00056       3.68142
 241    C  8  dz2    Ryd( 4d)     0.00003       3.43926
 242    C  8  f(0)   Ryd( 4f)     0.00037       3.29310
 243    C  8  f(c1)  Ryd( 4f)     0.00053       3.40188
 244    C  8  f(s1)  Ryd( 4f)     0.00049       3.37090
 245    C  8  f(c2)  Ryd( 4f)     0.00001       3.33621
 246    C  8  f(s2)  Ryd( 4f)     0.00003       3.32997
 247    C  8  f(c3)  Ryd( 4f)     0.00016       3.96149
 248    C  8  f(s3)  Ryd( 4f)     0.00057       3.91202

 249    C  9  s      Cor( 1s)     1.99999     -10.51219
 250    C  9  s      Val( 2s)     0.97543      -0.11591
 251    C  9  s      Ryd( 3s)     0.00082       1.73999
 252    C  9  s      Ryd( 4s)     0.00010       1.75116
 253    C  9  s      Ryd( 5s)     0.00000      20.08524
 254    C  9  px     Val( 2p)     1.04294       0.00757
 255    C  9  px     Ryd( 3p)     0.00300       1.08093
 256    C  9  px     Ryd( 4p)     0.00013       2.28698
 257    C  9  py     Val( 2p)     1.16012      -0.02614
 258    C  9  py     Ryd( 3p)     0.00454       1.17815
 259    C  9  py     Ryd( 4p)     0.00021       2.00139
 260    C  9  pz     Val( 2p)     1.05645      -0.09420
 261    C  9  pz     Ryd( 3p)     0.00214       0.66269
 262    C  9  pz     Ryd( 4p)     0.00025       1.37935
 263    C  9  dxy    Ryd( 3d)     0.00140       2.62857
 264    C  9  dxy    Ryd( 4d)     0.00023       3.96045
 265    C  9  dxz    Ryd( 3d)     0.00019       1.85139
 266    C  9  dxz    Ryd( 4d)     0.00011       2.95877
 267    C  9  dyz    Ryd( 3d)     0.00039       1.73404
 268    C  9  dyz    Ryd( 4d)     0.00005       3.03101
 269    C  9  dx2y2  Ryd( 3d)     0.00075       2.75266
 270    C  9  dx2y2  Ryd( 4d)     0.00043       4.27479
 271    C  9  dz2    Ryd( 3d)     0.00108       2.30277
 272    C  9  dz2    Ryd( 4d)     0.00001       3.60265
 273    C  9  f(0)   Ryd( 4f)     0.00039       3.22896
 274    C  9  f(c1)  Ryd( 4f)     0.00042       3.44113
 275    C  9  f(s1)  Ryd( 4f)     0.00053       3.33783
 276    C  9  f(c2)  Ryd( 4f)     0.00003       3.27658
 277    C  9  f(s2)  Ryd( 4f)     0.00002       3.33370
 278    C  9  f(c3)  Ryd( 4f)     0.00019       3.94402
 279    C  9  f(s3)  Ryd( 4f)     0.00048       3.92933

 280    C 10  s      Cor( 1s)     1.99999     -10.52013
 281    C 10  s      Val( 2s)     0.98167      -0.12442
 282    C 10  s      Ryd( 3s)     0.00089       1.58120
 283    C 10  s      Ryd( 4s)     0.00003       1.80258
 284    C 10  s      Ryd( 5s)     0.00000      20.50276
 285    C 10  px     Val( 2p)     1.12315      -0.01704
 286    C 10  px     Ryd( 3p)     0.00418       1.13677
 287    C 10  px     Ryd( 4p)     0.00013       2.15130
 288    C 10  py     Val( 2p)     1.09127      -0.00804
 289    C 10  py     Ryd( 3p)     0.00392       1.10117
 290    C 10  py     Ryd( 4p)     0.00009       2.11282
 291    C 10  pz     Val( 2p)     1.00647      -0.09369
 292    C 10  pz     Ryd( 3p)     0.00151       0.69943
 293    C 10  pz     Ryd( 4p)     0.00021       1.33791
 294    C 10  dxy    Ryd( 3d)     0.00090       2.67926
 295    C 10  dxy    Ryd( 4d)     0.00041       4.22930
 296    C 10  dxz    Ryd( 3d)     0.00038       1.85214
 297    C 10  dxz    Ryd( 4d)     0.00005       2.91630
 298    C 10  dyz    Ryd( 3d)     0.00023       1.87539
 299    C 10  dyz    Ryd( 4d)     0.00009       2.89457
 300    C 10  dx2y2  Ryd( 3d)     0.00141       2.63495
 301    C 10  dx2y2  Ryd( 4d)     0.00021       3.85760
 302    C 10  dz2    Ryd( 3d)     0.00103       2.22874
 303    C 10  dz2    Ryd( 4d)     0.00002       3.50194
 304    C 10  f(0)   Ryd( 4f)     0.00035       3.22146
 305    C 10  f(c1)  Ryd( 4f)     0.00050       3.37875
 306    C 10  f(s1)  Ryd( 4f)     0.00049       3.38814
 307    C 10  f(c2)  Ryd( 4f)     0.00001       3.32599
 308    C 10  f(s2)  Ryd( 4f)     0.00003       3.26370
 309    C 10  f(c3)  Ryd( 4f)     0.00020       3.89729
 310    C 10  f(s3)  Ryd( 4f)     0.00048       3.93722

 311    C 11  s      Cor( 1s)     1.99999     -10.51240
 312    C 11  s      Val( 2s)     0.98224      -0.12318
 313    C 11  s      Ryd( 3s)     0.00082       1.50765
 314    C 11  s      Ryd( 4s)     0.00003       1.81902
 315    C 11  s      Ryd( 5s)     0.00000      21.03066
 316    C 11  px     Val( 2p)     1.14963      -0.02474
 317    C 11  px     Ryd( 3p)     0.00424       1.11900
 318    C 11  px     Ryd( 4p)     0.00025       1.98655
 319    C 11  py     Val( 2p)     1.06215      -0.00361
 320    C 11  py     Ryd( 3p)     0.00386       0.99859
 321    C 11  py     Ryd( 4p)     0.00018       2.12960
 322    C 11  pz     Val( 2p)     1.07424      -0.09715
 323    C 11  pz     Ryd( 3p)     0.00346       0.63547
 324    C 11  pz     Ryd( 4p)     0.00031       1.39090
 325    C 11  dxy    Ryd( 3d)     0.00106       2.62163
 326    C 11  dxy    Ryd( 4d)     0.00033       4.05366
 327    C 11  dxz    Ryd( 3d)     0.00030       1.80014
 328    C 11  dxz    Ryd( 4d)     0.00005       2.96556
 329    C 11  dyz    Ryd( 3d)     0.00017       1.86397
 330    C 11  dyz    Ryd( 4d)     0.00010       2.89381
 331    C 11  dx2y2  Ryd( 3d)     0.00110       2.62750
 332    C 11  dx2y2  Ryd( 4d)     0.00032       4.04273
 333    C 11  dz2    Ryd( 3d)     0.00104       2.21816
 334    C 11  dz2    Ryd( 4d)     0.00002       3.51846
 335    C 11  f(0)   Ryd( 4f)     0.00040       3.24006
 336    C 11  f(c1)  Ryd( 4f)     0.00053       3.37204
 337    C 11  f(s1)  Ryd( 4f)     0.00042       3.41478
 338    C 11  f(c2)  Ryd( 4f)     0.00002       3.30607
 339    C 11  f(s2)  Ryd( 4f)     0.00002       3.30683
 340    C 11  f(c3)  Ryd( 4f)     0.00017       3.92112
 341    C 11  f(s3)  Ryd( 4f)     0.00046       3.94001

 342    C 12  s      Cor( 1s)     1.99999     -10.51870
 343    C 12  s      Val( 2s)     0.98265      -0.12240
 344    C 12  s      Ryd( 3s)     0.00090       1.60994
 345    C 12  s      Ryd( 4s)     0.00003       1.88665
 346    C 12  s      Ryd( 5s)     0.00000      20.67321
 347    C 12  px     Val( 2p)     1.05027       0.00705
 348    C 12  px     Ryd( 3p)     0.00342       1.04259
 349    C 12  px     Ryd( 4p)     0.00010       2.27734
 350    C 12  py     Val( 2p)     1.16432      -0.02692
 351    C 12  py     Ryd( 3p)     0.00459       1.20502
 352    C 12  py     Ryd( 4p)     0.00012       2.03473
 353    C 12  pz     Val( 2p)     1.00380      -0.09190
 354    C 12  pz     Ryd( 3p)     0.00145       0.70178
 355    C 12  pz     Ryd( 4p)     0.00019       1.34642
 356    C 12  dxy    Ryd( 3d)     0.00141       2.66327
 357    C 12  dxy    Ryd( 4d)     0.00022       3.85585
 358    C 12  dxz    Ryd( 3d)     0.00031       1.93512
 359    C 12  dxz    Ryd( 4d)     0.00008       2.87201
 360    C 12  dyz    Ryd( 3d)     0.00032       1.81068
 361    C 12  dyz    Ryd( 4d)     0.00005       2.94366
 362    C 12  dx2y2  Ryd( 3d)     0.00090       2.69433
 363    C 12  dx2y2  Ryd( 4d)     0.00041       4.25512
 364    C 12  dz2    Ryd( 3d)     0.00101       2.25085
 365    C 12  dz2    Ryd( 4d)     0.00001       3.50562
 366    C 12  f(0)   Ryd( 4f)     0.00034       3.22474
 367    C 12  f(c1)  Ryd( 4f)     0.00043       3.43845
 368    C 12  f(s1)  Ryd( 4f)     0.00055       3.33597
 369    C 12  f(c2)  Ryd( 4f)     0.00003       3.26495
 370    C 12  f(s2)  Ryd( 4f)     0.00001       3.33294
 371    C 12  f(c3)  Ryd( 4f)     0.00019       3.90779
 372    C 12  f(s3)  Ryd( 4f)     0.00049       3.93807

 373    C 13  s      Cor( 1s)     1.99999     -10.50734
 374    C 13  s      Val( 2s)     0.97971      -0.11009
 375    C 13  s      Ryd( 4s)     0.00094       1.76553
 376    C 13  s      Ryd( 3s)     0.00011       1.46551
 377    C 13  s      Ryd( 5s)     0.00000      19.98286
 378    C 13  px     Val( 2p)     1.13102      -0.00873
 379    C 13  px     Ryd( 3p)     0.00398       1.23342
 380    C 13  px     Ryd( 4p)     0.00022       2.17672
 381    C 13  py     Val( 2p)     1.08430       0.00113
 382    C 13  py     Ryd( 3p)     0.00375       1.05773
 383    C 13  py     Ryd( 4p)     0.00012       2.09865
 384    C 13  pz     Val( 2p)     1.02927      -0.08662
 385    C 13  pz     Ryd( 3p)     0.00203       0.66730
 386    C 13  pz     Ryd( 4p)     0.00024       1.38860
 387    C 13  dxy    Ryd( 3d)     0.00080       2.73550
 388    C 13  dxy    Ryd( 4d)     0.00045       4.25783
 389    C 13  dxz    Ryd( 3d)     0.00048       1.72418
 390    C 13  dxz    Ryd( 4d)     0.00011       3.08118
 391    C 13  dyz    Ryd( 3d)     0.00019       1.75838
 392    C 13  dyz    Ryd( 4d)     0.00007       3.03287
 393    C 13  dx2y2  Ryd( 3d)     0.00152       2.62537
 394    C 13  dx2y2  Ryd( 4d)     0.00024       4.03777
 395    C 13  dz2    Ryd( 3d)     0.00108       2.27293
 396    C 13  dz2    Ryd( 4d)     0.00001       3.64938
 397    C 13  f(0)   Ryd( 4f)     0.00035       3.23462
 398    C 13  f(c1)  Ryd( 4f)     0.00049       3.40822
 399    C 13  f(s1)  Ryd( 4f)     0.00045       3.38623
 400    C 13  f(c2)  Ryd( 4f)     0.00002       3.34109
 401    C 13  f(s2)  Ryd( 4f)     0.00003       3.27849
 402    C 13  f(c3)  Ryd( 4f)     0.00020       3.92048
 403    C 13  f(s3)  Ryd( 4f)     0.00049       3.98311

 404    H 14  s      Val( 1s)     0.61321       0.14158
 405    H 14  s      Ryd( 2s)     0.00063       0.86554
 406    H 14  s      Ryd( 3s)     0.00019       2.00569
 407    H 14  px     Ryd( 2p)     0.00020       2.37608
 408    H 14  px     Ryd( 3p)     0.00008       3.62424
 409    H 14  py     Ryd( 2p)     0.00046       3.12779
 410    H 14  py     Ryd( 3p)     0.00015       4.26087
 411    H 14  pz     Ryd( 2p)     0.00026       2.03271
 412    H 14  pz     Ryd( 3p)     0.00044       3.47130
 413    H 14  dxy    Ryd( 3d)     0.00004       4.48078
 414    H 14  dxz    Ryd( 3d)     0.00001       3.59220
 415    H 14  dyz    Ryd( 3d)     0.00002       4.33087
 416    H 14  dx2y2  Ryd( 3d)     0.00004       4.29892
 417    H 14  dz2    Ryd( 3d)     0.00002       3.91813

 418    H 15  s      Val( 1s)     0.81165       0.04846
 419    H 15  s      Ryd( 2s)     0.00059       0.69515
 420    H 15  s      Ryd( 3s)     0.00003       2.05438
 421    H 15  px     Ryd( 3p)     0.00027       4.07737
 422    H 15  px     Ryd( 2p)     0.00005       2.21879
 423    H 15  py     Ryd( 3p)     0.00007       3.76466
 424    H 15  py     Ryd( 2p)     0.00008       1.75826
 425    H 15  pz     Ryd( 3p)     0.00015       3.92210
 426    H 15  pz     Ryd( 2p)     0.00001       1.96586
 427    H 15  dxy    Ryd( 3d)     0.00004       4.08044
 428    H 15  dxz    Ryd( 3d)     0.00007       4.23880
 429    H 15  dyz    Ryd( 3d)     0.00002       3.85154
 430    H 15  dx2y2  Ryd( 3d)     0.00002       4.08673
 431    H 15  dz2    Ryd( 3d)     0.00002       4.13035

 432    H 16  s      Val( 1s)     0.82272       0.04315
 433    H 16  s      Ryd( 2s)     0.00127       0.64436
 434    H 16  s      Ryd( 3s)     0.00003       2.12265
 435    H 16  px     Ryd( 3p)     0.00010       3.91143
 436    H 16  px     Ryd( 2p)     0.00008       1.71440
 437    H 16  py     Ryd( 3p)     0.00005       3.78820
 438    H 16  py     Ryd( 2p)     0.00007       1.58454
 439    H 16  pz     Ryd( 3p)     0.00029       4.29172
 440    H 16  pz     Ryd( 2p)     0.00002       2.38214
 441    H 16  dxy    Ryd( 3d)     0.00001       3.66960
 442    H 16  dxz    Ryd( 3d)     0.00004       4.32941
 443    H 16  dyz    Ryd( 3d)     0.00003       4.17525
 444    H 16  dx2y2  Ryd( 3d)     0.00001       3.65573
 445    H 16  dz2    Ryd( 3d)     0.00009       4.50768

 446    H 17  s      Val( 1s)     0.77185       0.07338
 447    H 17  s      Ryd( 2s)     0.00113       0.93827
 448    H 17  s      Ryd( 3s)     0.00004       1.89551
 449    H 17  px     Ryd( 3p)     0.00006       4.01709
 450    H 17  px     Ryd( 2p)     0.00012       1.61130
 451    H 17  py     Ryd( 3p)     0.00030       4.36823
 452    H 17  py     Ryd( 2p)     0.00003       2.41743
 453    H 17  pz     Ryd( 3p)     0.00008       3.89994
 454    H 17  pz     Ryd( 2p)     0.00003       1.54135
 455    H 17  dxy    Ryd( 3d)     0.00002       4.38186
 456    H 17  dxz    Ryd( 3d)     0.00001       3.64293
 457    H 17  dyz    Ryd( 3d)     0.00004       4.25290
 458    H 17  dx2y2  Ryd( 3d)     0.00006       4.32910
 459    H 17  dz2    Ryd( 3d)     0.00002       3.92441

 460    H 18  s      Val( 1s)     0.86095       0.04847
 461    H 18  s      Ryd( 2s)     0.00289       0.56475
 462    H 18  s      Ryd( 3s)     0.00013       2.28797
 463    H 18  px     Ryd( 2p)     0.00011       2.23404
 464    H 18  px     Ryd( 3p)     0.00013       3.64228
 465    H 18  py     Ryd( 2p)     0.00022       2.79860
 466    H 18  py     Ryd( 3p)     0.00007       4.32140
 467    H 18  pz     Ryd( 2p)     0.00024       1.97930
 468    H 18  pz     Ryd( 3p)     0.00001       3.20683
 469    H 18  dxy    Ryd( 3d)     0.00002       4.46842
 470    H 18  dxz    Ryd( 3d)     0.00001       3.51640
 471    H 18  dyz    Ryd( 3d)     0.00002       4.15058
 472    H 18  dx2y2  Ryd( 3d)     0.00005       4.39258
 473    H 18  dz2    Ryd( 3d)     0.00001       3.95956

 474    H 19  s      Val( 1s)     0.85884       0.05026
 475    H 19  s      Ryd( 2s)     0.00347       0.51385
 476    H 19  s      Ryd( 3s)     0.00013       2.35354
 477    H 19  px     Ryd( 2p)     0.00010       2.50439
 478    H 19  px     Ryd( 3p)     0.00008       3.36836
 479    H 19  py     Ryd( 2p)     0.00022       2.81418
 480    H 19  py     Ryd( 3p)     0.00007       4.22007
 481    H 19  pz     Ryd( 2p)     0.00020       2.22465
 482    H 19  pz     Ryd( 3p)     0.00001       2.95437
 483    H 19  dxy    Ryd( 3d)     0.00003       4.47167
 484    H 19  dxz    Ryd( 3d)     0.00001       3.51159
 485    H 19  dyz    Ryd( 3d)     0.00002       4.16822
 486    H 19  dx2y2  Ryd( 3d)     0.00005       4.41222
 487    H 19  dz2    Ryd( 3d)     0.00001       3.97539

 488    H 20  s      Val( 1s)     0.79262       0.08188
 489    H 20  s      Ryd( 2s)     0.00066       0.83360
 490    H 20  s      Ryd( 3s)     0.00010       2.05131
 491    H 20  px     Ryd( 3p)     0.00005       4.30179
 492    H 20  px     Ryd( 2p)     0.00010       1.53714
 493    H 20  py     Ryd( 3p)     0.00025       4.19881
 494    H 20  py     Ryd( 2p)     0.00005       2.73655
 495    H 20  pz     Ryd( 3p)     0.00006       3.97351
 496    H 20  pz     Ryd( 2p)     0.00006       1.16860
 497    H 20  dxy    Ryd( 3d)     0.00003       4.53196
 498    H 20  dxz    Ryd( 3d)     0.00000       3.55278
 499    H 20  dyz    Ryd( 3d)     0.00001       4.20663
 500    H 20  dx2y2  Ryd( 3d)     0.00005       4.49604
 501    H 20  dz2    Ryd( 3d)     0.00001       4.03021

 502    H 21  s      Val( 1s)     0.78896       0.08105
 503    H 21  s      Ryd( 2s)     0.00040       0.71016
 504    H 21  s      Ryd( 3s)     0.00008       2.16158
 505    H 21  px     Ryd( 3p)     0.00019       4.30789
 506    H 21  px     Ryd( 2p)     0.00006       2.08472
 507    H 21  py     Ryd( 3p)     0.00014       4.27353
 508    H 21  py     Ryd( 2p)     0.00004       1.89170
 509    H 21  pz     Ryd( 3p)     0.00002       3.87684
 510    H 21  pz     Ryd( 2p)     0.00008       1.24108
 511    H 21  dxy    Ryd( 3d)     0.00005       4.49075
 512    H 21  dxz    Ryd( 3d)     0.00001       3.96778
 513    H 21  dyz    Ryd( 3d)     0.00001       3.79135
 514    H 21  dx2y2  Ryd( 3d)     0.00003       4.51594
 515    H 21  dz2    Ryd( 3d)     0.00001       4.01640

 516    H 22  s      Val( 1s)     0.78719       0.08319
 517    H 22  s      Ryd( 2s)     0.00036       0.63502
 518    H 22  s      Ryd( 3s)     0.00009       2.22454
 519    H 22  px     Ryd( 3p)     0.00023       4.23413
 520    H 22  px     Ryd( 2p)     0.00005       2.36367
 521    H 22  py     Ryd( 3p)     0.00009       4.31007
 522    H 22  py     Ryd( 2p)     0.00005       1.64665
 523    H 22  pz     Ryd( 3p)     0.00004       3.98527
 524    H 22  pz     Ryd( 2p)     0.00012       1.14802
 525    H 22  dxy    Ryd( 3d)     0.00004       4.49874
 526    H 22  dxz    Ryd( 3d)     0.00002       4.11062
 527    H 22  dyz    Ryd( 3d)     0.00001       3.63985
 528    H 22  dx2y2  Ryd( 3d)     0.00004       4.49888
 529    H 22  dz2    Ryd( 3d)     0.00001       4.01653

 530    H 23  s      Val( 1s)     0.78914       0.08383
 531    H 23  s      Ryd( 2s)     0.00041       0.73448
 532    H 23  s      Ryd( 3s)     0.00009       2.14399
 533    H 23  px     Ryd( 3p)     0.00008       4.24301
 534    H 23  px     Ryd( 2p)     0.00006       1.59161
 535    H 23  py     Ryd( 3p)     0.00026       4.34514
 536    H 23  py     Ryd( 2p)     0.00004       2.39786
 537    H 23  pz     Ryd( 3p)     0.00002       3.86827
 538    H 23  pz     Ryd( 2p)     0.00008       1.25345
 539    H 23  dxy    Ryd( 3d)     0.00003       4.52099
 540    H 23  dxz    Ryd( 3d)     0.00000       3.55018
 541    H 23  dyz    Ryd( 3d)     0.00001       4.21438
 542    H 23  dx2y2  Ryd( 3d)     0.00005       4.49313
 543    H 23  dz2    Ryd( 3d)     0.00001       4.02199

 544    H 24  s      Val( 1s)     0.77177       0.10505
 545    H 24  s      Ryd( 2s)     0.00112       0.79597
 546    H 24  s      Ryd( 3s)     0.00011       2.13865
 547    H 24  px     Ryd( 3p)     0.00018       4.39231
 548    H 24  px     Ryd( 2p)     0.00010       2.22842
 549    H 24  py     Ryd( 3p)     0.00014       4.36683
 550    H 24  py     Ryd( 2p)     0.00011       1.98158
 551    H 24  pz     Ryd( 3p)     0.00005       3.96647
 552    H 24  pz     Ryd( 2p)     0.00004       1.20133
 553    H 24  dxy    Ryd( 3d)     0.00005       4.52100
 554    H 24  dxz    Ryd( 3d)     0.00001       3.99914
 555    H 24  dyz    Ryd( 3d)     0.00001       3.79424
 556    H 24  dx2y2  Ryd( 3d)     0.00003       4.56688
 557    H 24  dz2    Ryd( 3d)     0.00001       4.05736


 Summary of Natural Population Analysis:

                                     Natural Population
             Natural    ---------------------------------------------
  Atom No    Charge        Core      Valence    Rydberg      Total
 --------------------------------------------------------------------
    O  1   -0.73566      2.00000     6.71153    0.02414     8.73566
    C  2    0.59866      1.99999     3.36396    0.03739     5.40134
    N  3   -0.64919      1.99999     5.62757    0.02162     7.64919
    C  4   -0.42033      1.99999     4.40588    0.01446     6.42033
    C  5   -0.28904      1.99999     4.25756    0.03149     6.28904
    N  6   -0.39286      1.99999     5.35931    0.03356     7.39286
    C  7   -0.13980      1.99999     4.11105    0.02875     6.13980
    C  8   -0.05755      1.99999     4.03826    0.01930     6.05755
    C  9   -0.25283      1.99999     4.23495    0.01789     6.25283
    C 10   -0.22030      1.99999     4.20255    0.01776     6.22030
    C 11   -0.28790      1.99999     4.26826    0.01964     6.28790
    C 12   -0.21857      1.99999     4.20104    0.01754     6.21857
    C 13   -0.24266      1.99999     4.22430    0.01837     6.24266
    H 14    0.38427      0.00000     0.61321    0.00252     0.61573
    H 15    0.18693      0.00000     0.81165    0.00142     0.81307
    H 16    0.17520      0.00000     0.82272    0.00207     0.82480
    H 17    0.22621      0.00000     0.77185    0.00194     0.77379
    H 18    0.13514      0.00000     0.86095    0.00391     0.86486
    H 19    0.13677      0.00000     0.85884    0.00439     0.86323
    H 20    0.20594      0.00000     0.79262    0.00144     0.79406
    H 21    0.20990      0.00000     0.78896    0.00114     0.79010
    H 22    0.21167      0.00000     0.78719    0.00114     0.78833
    H 23    0.20971      0.00000     0.78914    0.00115     0.79029
    H 24    0.22628      0.00000     0.77177    0.00195     0.77372
 ====================================================================
 * Total * -1.00000     25.99989    67.67512    0.32499    94.00000

                                 Natural Population
 ---------------------------------------------------------
   Core                      25.99989 ( 99.9996% of   26)
   Valence                   67.67512 ( 99.5222% of   68)
   Natural Minimal Basis     93.67501 ( 99.6543% of   94)
   Natural Rydberg Basis      0.32499 (  0.3457% of   94)
 ---------------------------------------------------------

    Atom No         Natural Electron Configuration
 ----------------------------------------------------------------------------
      O  1      [core]2s( 1.69)2p( 5.02)3p( 0.01)3d( 0.02)
      C  2      [core]2s( 0.83)2p( 2.53)3p( 0.02)4d( 0.01)
      N  3      [core]2s( 1.29)2p( 4.34)3p( 0.01)3d( 0.01)
      C  4      [core]2s( 1.09)2p( 3.32)3p( 0.01)3d( 0.01)
      C  5      [core]2s( 0.95)2p( 3.31)3s( 0.01)3p( 0.02)
      N  6      [core]2s( 1.32)2p( 4.04)3p( 0.01)3d( 0.02)
      C  7      [core]2s( 0.92)2p( 3.19)3s( 0.01)3p( 0.02)
      C  8      [core]2s( 0.94)2p( 3.10)3p( 0.01)
      C  9      [core]2s( 0.98)2p( 3.26)3p( 0.01)
      C 10      [core]2s( 0.98)2p( 3.22)3p( 0.01)
      C 11      [core]2s( 0.98)2p( 3.29)3p( 0.01)
      C 12      [core]2s( 0.98)2p( 3.22)3p( 0.01)
      C 13      [core]2s( 0.98)2p( 3.24)3p( 0.01)
      H 14            1s( 0.61)
      H 15            1s( 0.81)
      H 16            1s( 0.82)
      H 17            1s( 0.77)
      H 18            1s( 0.86)
      H 19            1s( 0.86)
      H 20            1s( 0.79)
      H 21            1s( 0.79)
      H 22            1s( 0.79)
      H 23            1s( 0.79)
      H 24            1s( 0.77)


 NATURAL BOND ORBITAL ANALYSIS:

                            Occupancies       Lewis Structure    Low   High
         Max    Occ     -------------------  -----------------   occ   occ
  Cycle  Ctr   Thresh    Lewis   non-Lewis     CR  BD  nC  LP    (L)   (NL)
 ============================================================================
    1     2     1.90    87.80357   6.19643     13  25   0   9     8      7
    2     2     1.88    87.91078   6.08922     13  25   0   9     7      7
    3     2     1.87    88.83726   5.16274     13  25   0   9     6      5
    4     2     1.86    89.43000   4.57000     13  26   0   8     5      5
    5     2     1.83    89.43000   4.57000     13  26   0   8     5      5
    6     2     1.78    89.44246   4.55754     13  26   0   8     4      5
    7     2     1.72    90.13304   3.86696     13  27   0   7     3      5
    8     2     1.71    90.79002   3.20998     13  28   0   6     2      5
    9     2     1.69    90.79002   3.20998     13  28   0   6     2      5
   10     2     1.67    90.79002   3.20998     13  28   0   6     2      5
   11     2     1.61    91.31266   2.68734     13  29   0   5     1      5
   12     2     1.60    90.92430   3.07570     13  28   0   6     1      5
   13     2     1.58    90.92430   3.07570     13  28   0   6     1      5
   14     2     1.57    91.22127   2.77873     13  29   0   5     0      5
   15     2     1.51    91.22127   2.77873     13  29   0   5     0      5
   16     2     1.61    91.31266   2.68734     13  29   0   5     1      5
 ----------------------------------------------------------------------------

 Strongly delocalized structure accepted

 -------------------------------------------------------
   Core                     25.99989 (100.000% of  26)
   Valence Lewis            65.31277 ( 96.048% of  68)
  ==================      =============================
   Total Lewis              91.31266 ( 97.141% of  94)
  -----------------------------------------------------
   Valence non-Lewis         2.51006 (  2.670% of  94)
   Rydberg non-Lewis         0.17728 (  0.189% of  94)
  ==================      =============================
   Total non-Lewis           2.68734 (  2.859% of  94)
 -------------------------------------------------------


     (Occupancy)   Bond orbital / Coefficients / Hybrids
 ------------------ Lewis ------------------------------------------------------
   1. (2.00000) CR ( 1) O  1            s(100.00%)
                                         1.0000  0.0000  0.0000  0.0000  0.0000
                                         0.0000  0.0000  0.0000  0.0000  0.0000
                                         0.0000  0.0000  0.0000  0.0000  0.0000
                                         0.0000  0.0000  0.0000  0.0000  0.0000
                                         0.0000  0.0000  0.0000  0.0000  0.0000
                                         0.0000  0.0000  0.0000  0.0000  0.0000
                                         0.0000
   2. (1.99999) CR ( 1) C  2            s(100.00%)
                                         1.0000  0.0000  0.0000  0.0000  0.0000
                                         0.0000  0.0000  0.0000  0.0000  0.0000
                                         0.0000  0.0000  0.0000  0.0000  0.0000
                                         0.0000  0.0000  0.0000  0.0000  0.0000
                                         0.0000  0.0000  0.0000  0.0000  0.0000
                                         0.0000  0.0000  0.0000  0.0000  0.0000
                                         0.0000
   3. (1.99999) CR ( 1) N  3            s(100.00%)
                                         1.0000  0.0000  0.0000  0.0000  0.0000
                                         0.0000  0.0000  0.0000  0.0000  0.0000
                                         0.0000  0.0000  0.0000  0.0000  0.0000
                                         0.0000  0.0000  0.0000  0.0000  0.0000
                                         0.0000  0.0000  0.0000  0.0000  0.0000
                                         0.0000  0.0000  0.0000  0.0000  0.0000
                                         0.0000
   4. (1.99999) CR ( 1) C  4            s(100.00%)
                                         1.0000  0.0000  0.0000  0.0000  0.0000
                                         0.0000  0.0000  0.0000  0.0000  0.0000
                                         0.0000  0.0000  0.0000  0.0000  0.0000
                                         0.0000  0.0000  0.0000  0.0000  0.0000
                                         0.0000  0.0000  0.0000  0.0000  0.0000
                                         0.0000  0.0000  0.0000  0.0000  0.0000
                                         0.0000
   5. (1.99999) CR ( 1) C  5            s(100.00%)
                                         1.0000  0.0000  0.0000  0.0000  0.0000
                                         0.0000  0.0000  0.0000  0.0000  0.0000
                                         0.0000  0.0000  0.0000  0.0000  0.0000
                                         0.0000  0.0000  0.0000  0.0000  0.0000
                                         0.0000  0.0000  0.0000  0.0000  0.0000
                                         0.0000  0.0000  0.0000  0.0000  0.0000
                                         0.0000
   6. (1.99999) CR ( 1) N  6            s(100.00%)
                                         1.0000  0.0000  0.0000  0.0000  0.0000
                                         0.0000  0.0000  0.0000  0.0000  0.0000
                                         0.0000  0.0000  0.0000  0.0000  0.0000
                                         0.0000  0.0000  0.0000  0.0000  0.0000
                                         0.0000  0.0000  0.0000  0.0000  0.0000
                                         0.0000  0.0000  0.0000  0.0000  0.0000
                                         0.0000
   7. (1.99999) CR ( 1) C  7            s(100.00%)
                                         1.0000  0.0000  0.0000  0.0000  0.0000
                                         0.0000  0.0000  0.0000  0.0000  0.0000
                                         0.0000  0.0000  0.0000  0.0000  0.0000
                                         0.0000  0.0000  0.0000  0.0000  0.0000
                                         0.0000  0.0000  0.0000  0.0000  0.0000
                                         0.0000  0.0000  0.0000  0.0000  0.0000
                                         0.0000
   8. (1.99999) CR ( 1) C  8            s(100.00%)
                                         1.0000  0.0000  0.0000  0.0000  0.0000
                                         0.0000  0.0000  0.0000  0.0000  0.0000
                                         0.0000  0.0000  0.0000  0.0000  0.0000
                                         0.0000  0.0000  0.0000  0.0000  0.0000
                                         0.0000  0.0000  0.0000  0.0000  0.0000
                                         0.0000  0.0000  0.0000  0.0000  0.0000
                                         0.0000
   9. (1.99999) CR ( 1) C  9            s(100.00%)
                                         1.0000  0.0000  0.0000  0.0000  0.0000
                                         0.0000  0.0000  0.0000  0.0000  0.0000
                                         0.0000  0.0000  0.0000  0.0000  0.0000
                                         0.0000  0.0000  0.0000  0.0000  0.0000
                                         0.0000  0.0000  0.0000  0.0000  0.0000
                                         0.0000  0.0000  0.0000  0.0000  0.0000
                                         0.0000
  10. (1.99999) CR ( 1) C 10            s(100.00%)
                                         1.0000  0.0000  0.0000  0.0000  0.0000
                                         0.0000  0.0000  0.0000  0.0000  0.0000
                                         0.0000  0.0000  0.0000  0.0000  0.0000
                                         0.0000  0.0000  0.0000  0.0000  0.0000
                                         0.0000  0.0000  0.0000  0.0000  0.0000
                                         0.0000  0.0000  0.0000  0.0000  0.0000
                                         0.0000
  11. (1.99999) CR ( 1) C 11            s(100.00%)
                                         1.0000  0.0000  0.0000  0.0000  0.0000
                                         0.0000  0.0000  0.0000  0.0000  0.0000
                                         0.0000  0.0000  0.0000  0.0000  0.0000
                                         0.0000  0.0000  0.0000  0.0000  0.0000
                                         0.0000  0.0000  0.0000  0.0000  0.0000
                                         0.0000  0.0000  0.0000  0.0000  0.0000
                                         0.0000
  12. (1.99999) CR ( 1) C 12            s(100.00%)
                                         1.0000  0.0000  0.0000  0.0000  0.0000
                                         0.0000  0.0000  0.0000  0.0000  0.0000
                                         0.0000  0.0000  0.0000  0.0000  0.0000
                                         0.0000  0.0000  0.0000  0.0000  0.0000
                                         0.0000  0.0000  0.0000  0.0000  0.0000
                                         0.0000  0.0000  0.0000  0.0000  0.0000
                                         0.0000
  13. (1.99999) CR ( 1) C 13            s(100.00%)
                                         1.0000  0.0000  0.0000  0.0000  0.0000
                                         0.0000  0.0000  0.0000  0.0000  0.0000
                                         0.0000  0.0000  0.0000  0.0000  0.0000
                                         0.0000  0.0000  0.0000  0.0000  0.0000
                                         0.0000  0.0000  0.0000  0.0000  0.0000
                                         0.0000  0.0000  0.0000  0.0000  0.0000
                                         0.0000
  14. (1.97794) LP ( 1) O  1            s( 59.55%)p 0.68( 40.37%)d 0.00(  0.08%)
                                                  f 0.00(  0.00%)
                                         0.0000  0.7717 -0.0009  0.0003 -0.0001
                                        -0.0100  0.0010  0.0004  0.6352 -0.0025
                                        -0.0045 -0.0120  0.0000  0.0001  0.0012
                                         0.0000 -0.0001  0.0000  0.0009  0.0000
                                         0.0230  0.0003  0.0150  0.0000  0.0001
                                         0.0000 -0.0016  0.0001  0.0000  0.0003
                                        -0.0027
  15. (1.87061) LP ( 2) O  1            s(  0.01%)p99.99( 99.80%)d12.10(  0.17%)
                                                  f 0.68(  0.01%)
                                         0.0000  0.0113 -0.0040  0.0003  0.0001
                                         0.9986  0.0103 -0.0011  0.0024 -0.0015
                                         0.0003  0.0251  0.0006  0.0000 -0.0417
                                         0.0003  0.0007  0.0000 -0.0013  0.0001
                                         0.0026 -0.0003 -0.0010  0.0002 -0.0001
                                        -0.0014  0.0000 -0.0003 -0.0002 -0.0098
                                        -0.0001
  16. (1.78323) LP ( 1) N  3            s(  4.37%)p21.87( 95.57%)d 0.01(  0.04%)
                                                  f 0.01(  0.03%)
                                         0.0000  0.2090 -0.0019 -0.0023  0.0001
                                         0.0853  0.0009  0.0009 -0.1256 -0.0074
                                        -0.0016 -0.9650 -0.0341 -0.0078  0.0006
                                         0.0000  0.0107 -0.0011 -0.0078  0.0005
                                        -0.0008 -0.0002 -0.0142  0.0012  0.0152
                                        -0.0030  0.0045 -0.0015  0.0001  0.0000
                                         0.0024
  17. (1.28154) LP ( 1) C  5            s(  0.00%)p 1.00( 99.94%)d 0.00(  0.02%)
                                                  f 0.00(  0.04%)
                                         0.0000 -0.0027  0.0028  0.0017  0.0000
                                        -0.0084 -0.0039  0.0006 -0.0024 -0.0006
                                         0.0000 -0.9980 -0.0568  0.0115 -0.0006
                                         0.0005 -0.0027  0.0077 -0.0115  0.0004
                                         0.0002 -0.0002 -0.0002  0.0001  0.0202
                                         0.0006  0.0001 -0.0035  0.0002  0.0000
                                         0.0000
  18. (1.88231) LP ( 1) N  6            s( 24.32%)p 3.10( 75.49%)d 0.01(  0.18%)
                                                  f 0.00(  0.00%)
                                         0.0000  0.4924 -0.0283 -0.0023  0.0000
                                        -0.1082 -0.0042 -0.0003  0.8616  0.0284
                                         0.0054  0.0015  0.0001  0.0000  0.0066
                                        -0.0002  0.0001  0.0000  0.0000  0.0000
                                         0.0346 -0.0029  0.0240 -0.0009  0.0000
                                         0.0007 -0.0044  0.0001 -0.0002 -0.0019
                                         0.0049
  19. (1.99387) BD ( 1) O  1- C  2
               ( 64.46%)   0.8029* O  1 s( 38.24%)p 1.60( 61.20%)d 0.01(  0.55%)
                                                  f 0.00(  0.01%)
                                         0.0000  0.6184  0.0019 -0.0007  0.0003
                                        -0.0111 -0.0005  0.0000 -0.7436  0.0260
                                        -0.0078  0.2410 -0.0009 -0.0001 -0.0003
                                        -0.0001  0.0007 -0.0001 -0.0146 -0.0002
                                        -0.0636 -0.0004 -0.0357  0.0002 -0.0015
                                        -0.0001  0.0059 -0.0024  0.0000  0.0000
                                         0.0087
               ( 35.54%)   0.5962* C  2 s( 32.27%)p 2.09( 67.61%)d 0.00(  0.09%)
                                                  f 0.00(  0.03%)
                                         0.0000  0.5666 -0.0404  0.0054 -0.0004
                                        -0.0137  0.0062  0.0002  0.7905 -0.0514
                                        -0.0014  0.2199  0.0062 -0.0027  0.0002
                                         0.0001  0.0004 -0.0006  0.0114 -0.0023
                                        -0.0140 -0.0196 -0.0087 -0.0096 -0.0036
                                        -0.0010 -0.0099  0.0001  0.0006  0.0007
                                        -0.0121
  20. (1.99098) BD ( 2) O  1- C  2
               ( 74.47%)   0.8630* O  1 s(  2.09%)p46.61( 97.58%)d 0.15(  0.31%)
                                                  f 0.01(  0.01%)
                                         0.0000  0.1447  0.0007 -0.0001  0.0001
                                         0.0232 -0.0001  0.0001 -0.1929  0.0066
                                        -0.0019 -0.9685  0.0035  0.0008 -0.0015
                                         0.0000 -0.0030  0.0004  0.0526  0.0009
                                        -0.0159 -0.0001 -0.0102  0.0000  0.0055
                                         0.0000  0.0019  0.0090  0.0001 -0.0003
                                         0.0022
               ( 25.53%)   0.5052* C  2 s(  1.89%)p51.76( 97.84%)d 0.13(  0.24%)
                                                  f 0.02(  0.03%)
                                         0.0000  0.1369 -0.0121  0.0024  0.0000
                                         0.0085  0.0004  0.0002  0.1720 -0.0137
                                         0.0001 -0.9736 -0.0207  0.0118  0.0012
                                         0.0001 -0.0025  0.0026 -0.0486  0.0053
                                        -0.0033 -0.0037 -0.0009 -0.0018  0.0170
                                        -0.0002 -0.0015  0.0016 -0.0025 -0.0006
                                        -0.0026
  21. (1.99005) BD ( 1) C  2- N  3
               ( 37.95%)   0.6161* C  2 s( 28.71%)p 2.48( 71.21%)d 0.00(  0.06%)
                                                  f 0.00(  0.01%)
                                         0.0000  0.5359  0.0007  0.0014 -0.0002
                                         0.7559 -0.0093 -0.0037 -0.3747  0.0068
                                        -0.0036  0.0155  0.0054 -0.0004 -0.0185
                                        -0.0061  0.0013 -0.0030 -0.0008  0.0017
                                         0.0085  0.0070 -0.0072 -0.0058 -0.0005
                                        -0.0085  0.0042 -0.0001  0.0000 -0.0010
                                        -0.0071
               ( 62.05%)   0.7877* N  3 s( 34.44%)p 1.90( 65.35%)d 0.01(  0.19%)
                                                  f 0.00(  0.02%)
                                         0.0000  0.5868 -0.0089  0.0004 -0.0003
                                        -0.7029  0.0194  0.0041  0.3986 -0.0070
                                        -0.0028  0.0134  0.0004 -0.0021 -0.0302
                                         0.0000 -0.0084  0.0004  0.0049 -0.0007
                                         0.0163 -0.0001 -0.0258  0.0006 -0.0004
                                         0.0094 -0.0055 -0.0011  0.0028 -0.0008
                                         0.0081
  22. (1.98131) BD ( 1) C  2- C  5
               ( 50.28%)   0.7091* C  2 s( 37.22%)p 1.68( 62.68%)d 0.00(  0.07%)
                                                  f 0.00(  0.03%)
                                         0.0000  0.6094  0.0291 -0.0032  0.0003
                                        -0.6534 -0.0028 -0.0046 -0.4470 -0.0007
                                        -0.0103  0.0007 -0.0006  0.0003  0.0237
                                        -0.0038 -0.0005  0.0002 -0.0002  0.0001
                                         0.0038  0.0011 -0.0067 -0.0051 -0.0002
                                         0.0097  0.0093  0.0001  0.0005  0.0048
                                        -0.0120
               ( 49.72%)   0.7052* C  5 s( 33.88%)p 1.95( 65.96%)d 0.00(  0.13%)
                                                  f 0.00(  0.04%)
                                         0.0000  0.5818 -0.0128 -0.0092 -0.0003
                                         0.6402 -0.0152  0.0005  0.4994 -0.0045
                                         0.0006 -0.0082  0.0001  0.0001  0.0308
                                        -0.0040 -0.0004 -0.0001 -0.0003 -0.0001
                                         0.0034  0.0001 -0.0166 -0.0005  0.0003
                                        -0.0108 -0.0086 -0.0002 -0.0004  0.0009
                                         0.0137
  23. (1.99431) BD ( 1) N  3- C  4
               ( 60.29%)   0.7765* N  3 s( 34.12%)p 1.92( 65.68%)d 0.00(  0.17%)
                                                  f 0.00(  0.02%)
                                         0.0000  0.5839  0.0176 -0.0008 -0.0001
                                         0.7029 -0.0282 -0.0006  0.3773  0.0010
                                        -0.0061  0.1400 -0.0039 -0.0015  0.0259
                                         0.0008  0.0176 -0.0001  0.0093 -0.0004
                                         0.0095  0.0021 -0.0230  0.0007 -0.0050
                                        -0.0094 -0.0059  0.0020  0.0012  0.0011
                                         0.0091
               ( 39.71%)   0.6301* C  4 s( 26.92%)p 2.71( 73.00%)d 0.00(  0.06%)
                                                  f 0.00(  0.01%)
                                         0.0000  0.5172  0.0415  0.0003 -0.0001
                                        -0.7190  0.0258  0.0007 -0.4434  0.0246
                                         0.0042 -0.1224  0.0096  0.0016  0.0152
                                         0.0082  0.0054  0.0025  0.0021  0.0022
                                         0.0104  0.0031 -0.0133 -0.0033  0.0054
                                         0.0069  0.0006 -0.0014 -0.0007  0.0004
                                        -0.0077
  24. (1.98325) BD ( 1) N  3- H 14
               ( 69.57%)   0.8341* N  3 s( 26.91%)p 2.71( 72.92%)d 0.01(  0.15%)
                                                  f 0.00(  0.02%)
                                         0.0000  0.5188 -0.0028  0.0018  0.0004
                                        -0.0312  0.0010  0.0031 -0.8251  0.0122
                                         0.0036  0.2172  0.0009 -0.0019  0.0062
                                        -0.0011 -0.0013 -0.0001 -0.0263  0.0010
                                        -0.0228 -0.0032 -0.0142 -0.0007 -0.0072
                                         0.0013  0.0100 -0.0035 -0.0007  0.0002
                                         0.0063
               ( 30.43%)   0.5516* H 14 s( 99.89%)p 0.00(  0.11%)d 0.00(  0.01%)
                                         0.9994 -0.0033 -0.0008 -0.0029  0.0005
                                        -0.0267  0.0146  0.0110 -0.0023  0.0004
                                         0.0000 -0.0027 -0.0064 -0.0038
  25. (1.99101) BD ( 1) C  4- H 15
               ( 59.69%)   0.7726* C  4 s( 24.46%)p 3.08( 75.40%)d 0.01(  0.12%)
                                                  f 0.00(  0.02%)
                                         0.0000  0.4946 -0.0073 -0.0007  0.0003
                                         0.6290  0.0037 -0.0015 -0.3018 -0.0100
                                         0.0005 -0.5168 -0.0083  0.0032 -0.0151
                                         0.0010 -0.0266  0.0013  0.0128 -0.0005
                                         0.0113 -0.0007  0.0015 -0.0004  0.0075
                                         0.0044 -0.0021 -0.0036  0.0034  0.0043
                                        -0.0066
               ( 40.31%)   0.6349* H 15 s( 99.94%)p 0.00(  0.05%)d 0.00(  0.01%)
                                         0.9997 -0.0026 -0.0002  0.0163 -0.0007
                                        -0.0064  0.0003 -0.0119  0.0017 -0.0044
                                        -0.0081  0.0029  0.0039 -0.0002
  26. (1.99224) BD ( 1) C  4- H 16
               ( 59.40%)   0.7707* C  4 s( 24.44%)p 3.09( 75.43%)d 0.00(  0.12%)
                                                  f 0.00(  0.02%)
                                         0.0000  0.4942 -0.0104  0.0001 -0.0001
                                         0.2571 -0.0062  0.0027 -0.0704 -0.0068
                                        -0.0003  0.8265  0.0093  0.0003 -0.0010
                                         0.0001  0.0175 -0.0008 -0.0036 -0.0001
                                         0.0020 -0.0002  0.0298 -0.0014  0.0066
                                         0.0094 -0.0011  0.0025  0.0019  0.0022
                                        -0.0047
               ( 40.60%)   0.6371* H 16 s( 99.95%)p 0.00(  0.04%)d 0.00(  0.01%)
                                         0.9997 -0.0049 -0.0001  0.0072  0.0003
                                        -0.0006 -0.0003  0.0182 -0.0023 -0.0004
                                         0.0055 -0.0008  0.0006  0.0082
  27. (1.98828) BD ( 1) C  4- H 17
               ( 61.56%)   0.7846* C  4 s( 24.29%)p 3.11( 75.58%)d 0.00(  0.11%)
                                                  f 0.00(  0.02%)
                                         0.0000  0.4928 -0.0110  0.0005 -0.0002
                                        -0.1334 -0.0078 -0.0046  0.8396  0.0057
                                         0.0019 -0.1814 -0.0053  0.0003 -0.0114
                                         0.0001  0.0039 -0.0008 -0.0132  0.0012
                                        -0.0236  0.0006 -0.0157  0.0010  0.0067
                                         0.0046 -0.0055  0.0009  0.0022  0.0012
                                        -0.0084
               ( 38.44%)   0.6200* H 17 s( 99.95%)p 0.00(  0.04%)d 0.00(  0.01%)
                                         0.9997 -0.0034 -0.0001 -0.0013  0.0070
                                         0.0192 -0.0018 -0.0042 -0.0003 -0.0016
                                         0.0006 -0.0034 -0.0084 -0.0040
  28. (1.98676) BD ( 1) C  5- N  6
               ( 40.43%)   0.6359* C  5 s( 35.36%)p 1.83( 64.54%)d 0.00(  0.06%)
                                                  f 0.00(  0.03%)
                                         0.0000  0.5927  0.0489  0.0007 -0.0003
                                        -0.7518  0.0566  0.0104  0.2760 -0.0261
                                        -0.0058  0.0041 -0.0010 -0.0001 -0.0077
                                        -0.0121 -0.0003 -0.0002  0.0001  0.0001
                                         0.0074  0.0103 -0.0142 -0.0054 -0.0003
                                         0.0121 -0.0037  0.0004 -0.0002 -0.0086
                                         0.0100
               ( 59.57%)   0.7718* N  6 s( 37.56%)p 1.65( 62.00%)d 0.01(  0.40%)
                                                  f 0.00(  0.03%)
                                         0.0000  0.6124  0.0246  0.0016 -0.0001
                                         0.7446 -0.0169 -0.0036 -0.2550 -0.0071
                                         0.0056 -0.0120  0.0002  0.0000 -0.0443
                                        -0.0016 -0.0012  0.0000  0.0006  0.0000
                                         0.0253  0.0013 -0.0373  0.0025  0.0004
                                        -0.0105  0.0041 -0.0004  0.0002  0.0125
                                        -0.0079
  29. (1.98514) BD ( 1) C  5- H 18
               ( 57.85%)   0.7606* C  5 s( 30.85%)p 2.24( 69.03%)d 0.00(  0.09%)
                                                  f 0.00(  0.04%)
                                         0.0000  0.5549 -0.0214  0.0082  0.0003
                                         0.1347 -0.0067  0.0054 -0.8195  0.0147
                                        -0.0195 -0.0007  0.0012 -0.0003 -0.0099
                                         0.0012  0.0001 -0.0001  0.0001  0.0003
                                        -0.0196 -0.0044 -0.0186  0.0030  0.0001
                                        -0.0035  0.0159  0.0002  0.0001 -0.0063
                                         0.0073
               ( 42.15%)   0.6493* H 18 s( 99.96%)p 0.00(  0.03%)d 0.00(  0.00%)
                                         0.9998 -0.0089  0.0007  0.0005 -0.0043
                                         0.0154  0.0084  0.0008 -0.0004 -0.0024
                                         0.0002  0.0000 -0.0057 -0.0033
  30. (1.98754) BD ( 1) N  6- C  7
               ( 59.35%)   0.7704* N  6 s( 37.99%)p 1.62( 61.58%)d 0.01(  0.40%)
                                                  f 0.00(  0.03%)
                                         0.0000  0.6162  0.0139  0.0011  0.0000
                                        -0.6540  0.0146  0.0021 -0.4333  0.0060
                                         0.0054  0.0083 -0.0001  0.0000  0.0507
                                         0.0023 -0.0009  0.0001 -0.0007  0.0000
                                         0.0013  0.0003 -0.0372  0.0023 -0.0003
                                         0.0090  0.0063  0.0002  0.0004 -0.0038
                                        -0.0141
               ( 40.65%)   0.6376* C  7 s( 34.97%)p 1.86( 64.94%)d 0.00(  0.06%)
                                                  f 0.00(  0.03%)
                                         0.0000  0.5899  0.0416  0.0004 -0.0006
                                         0.6664 -0.0428 -0.0074  0.4498 -0.0301
                                        -0.0041 -0.0103  0.0006  0.0001  0.0135
                                         0.0140 -0.0004 -0.0002 -0.0002 -0.0002
                                         0.0034  0.0029 -0.0136 -0.0036  0.0004
                                        -0.0108 -0.0065 -0.0002 -0.0004 -0.0002
                                         0.0131
  31. (1.86182) BD ( 2) N  6- C  7
               ( 48.48%)   0.6962* N  6 s(  0.00%)p 1.00( 99.70%)d 0.00(  0.27%)
                                                  f 0.00(  0.03%)
                                         0.0000  0.0015  0.0003  0.0001  0.0000
                                         0.0146 -0.0005  0.0000 -0.0008  0.0002
                                         0.0000  0.9983 -0.0162  0.0011 -0.0007
                                        -0.0001 -0.0077 -0.0069 -0.0507 -0.0018
                                         0.0000 -0.0001  0.0002  0.0001 -0.0127
                                        -0.0006 -0.0001  0.0099  0.0037  0.0002
                                         0.0001
               ( 51.52%)   0.7178* C  7 s(  0.00%)p 1.00( 99.93%)d 0.00(  0.04%)
                                                  f 0.00(  0.03%)
                                         0.0000  0.0004  0.0001  0.0001  0.0000
                                         0.0151  0.0001  0.0000  0.0000  0.0000
                                         0.0000  0.9990  0.0288 -0.0124  0.0002
                                         0.0000  0.0124  0.0012  0.0151 -0.0010
                                         0.0002  0.0000 -0.0003 -0.0001 -0.0185
                                        -0.0007  0.0000  0.0026  0.0004  0.0001
                                         0.0000
  32. (1.98001) BD ( 1) C  7- C  8
               ( 48.25%)   0.6946* C  7 s( 35.69%)p 1.80( 64.19%)d 0.00(  0.08%)
                                                  f 0.00(  0.04%)
                                         0.0000  0.5973 -0.0003 -0.0070  0.0002
                                        -0.7379  0.0176 -0.0024  0.3116 -0.0001
                                         0.0003  0.0109 -0.0003  0.0000 -0.0195
                                         0.0042 -0.0006  0.0001  0.0003 -0.0001
                                         0.0133 -0.0014 -0.0157  0.0026 -0.0004
                                         0.0122 -0.0055  0.0004 -0.0003 -0.0091
                                         0.0103
               ( 51.75%)   0.7194* C  8 s( 33.61%)p 1.97( 66.28%)d 0.00(  0.06%)
                                                  f 0.00(  0.05%)
                                         0.0000  0.5797 -0.0010  0.0003  0.0001
                                         0.7497  0.0034  0.0065 -0.3171  0.0047
                                        -0.0016 -0.0112  0.0000 -0.0001 -0.0148
                                        -0.0008 -0.0005  0.0000  0.0002  0.0000
                                         0.0151 -0.0006 -0.0114 -0.0006  0.0006
                                        -0.0162  0.0067 -0.0005  0.0004  0.0063
                                        -0.0140
  33. (1.98452) BD ( 1) C  7- H 19
               ( 58.02%)   0.7617* C  7 s( 29.43%)p 2.39( 70.46%)d 0.00(  0.08%)
                                                  f 0.00(  0.03%)
                                         0.0000  0.5416 -0.0310  0.0061  0.0003
                                         0.0860  0.0047 -0.0013 -0.8347  0.0022
                                        -0.0210 -0.0015  0.0000  0.0000 -0.0009
                                        -0.0030 -0.0001  0.0001  0.0000  0.0001
                                        -0.0222  0.0005 -0.0165  0.0061  0.0000
                                        -0.0010  0.0157  0.0000  0.0002 -0.0005
                                         0.0098
               ( 41.98%)   0.6479* H 19 s( 99.96%)p 0.00(  0.03%)d 0.00(  0.00%)
                                         0.9998 -0.0103  0.0008 -0.0018  0.0010
                                         0.0156  0.0078  0.0001  0.0000 -0.0009
                                         0.0000  0.0000 -0.0063 -0.0025
  34. (1.97961) BD ( 1) C  8- C  9
               ( 50.70%)   0.7120* C  8 s( 33.21%)p 2.01( 66.67%)d 0.00(  0.07%)
                                                  f 0.00(  0.05%)
                                         0.0000  0.5763  0.0026 -0.0001 -0.0001
                                        -0.6529 -0.0063 -0.0020 -0.4900  0.0155
                                         0.0018  0.0094  0.0001  0.0000  0.0190
                                         0.0021 -0.0005  0.0001 -0.0003  0.0000
                                         0.0074 -0.0005 -0.0156  0.0027 -0.0005
                                         0.0150  0.0098  0.0003  0.0004  0.0036
                                        -0.0126
               ( 49.30%)   0.7022* C  9 s( 35.65%)p 1.80( 64.18%)d 0.00(  0.11%)
                                                  f 0.00(  0.05%)
                                         0.0000  0.5971 -0.0006 -0.0026  0.0002
                                         0.6634 -0.0259  0.0030  0.4482  0.0020
                                         0.0035 -0.0095  0.0004  0.0000  0.0260
                                         0.0018 -0.0006  0.0000 -0.0004  0.0000
                                         0.0042  0.0025 -0.0210  0.0007  0.0004
                                        -0.0127 -0.0101 -0.0003 -0.0005  0.0007
                                         0.0152
  35. (1.61548) BD ( 2) C  8- C  9
               ( 46.61%)   0.6827* C  8 s(  0.00%)p 1.00( 99.94%)d 0.00(  0.02%)
                                                  f 0.00(  0.04%)
                                         0.0000  0.0001  0.0001  0.0000  0.0000
                                        -0.0148 -0.0002  0.0001  0.0006  0.0000
                                         0.0000 -0.9995 -0.0082  0.0066  0.0000
                                         0.0000  0.0149  0.0012  0.0025  0.0026
                                         0.0002  0.0000 -0.0004  0.0000  0.0190
                                         0.0007 -0.0001 -0.0005  0.0031  0.0000
                                         0.0001
               ( 53.39%)   0.7307* C  9 s(  0.00%)p 1.00( 99.94%)d 0.00(  0.03%)
                                                  f 0.00(  0.04%)
                                         0.0000  0.0000  0.0001  0.0000  0.0000
                                        -0.0148 -0.0003  0.0002  0.0007  0.0000
                                         0.0000 -0.9993 -0.0198  0.0124 -0.0002
                                         0.0000 -0.0021 -0.0031 -0.0157 -0.0009
                                         0.0000 -0.0001  0.0000  0.0001  0.0188
                                         0.0008  0.0000 -0.0033  0.0000 -0.0001
                                         0.0000
  36. (1.97623) BD ( 1) C  8- C 13
               ( 50.82%)   0.7129* C  8 s( 33.05%)p 2.02( 66.84%)d 0.00(  0.06%)
                                                  f 0.00(  0.05%)
                                         0.0000  0.5749  0.0001  0.0005 -0.0001
                                        -0.1014 -0.0122 -0.0025  0.8111 -0.0088
                                        -0.0004  0.0020  0.0002  0.0000 -0.0083
                                         0.0017 -0.0001  0.0001  0.0002  0.0000
                                        -0.0180 -0.0025 -0.0148  0.0019 -0.0002
                                         0.0036 -0.0175  0.0000 -0.0002  0.0055
                                        -0.0123
               ( 49.18%)   0.7013* C 13 s( 34.72%)p 1.88( 65.11%)d 0.00(  0.12%)
                                                  f 0.00(  0.05%)
                                         0.0000  0.5892 -0.0020 -0.0028  0.0003
                                         0.1343 -0.0175 -0.0011 -0.7953  0.0148
                                        -0.0030 -0.0024  0.0003  0.0000 -0.0024
                                        -0.0030 -0.0001  0.0000  0.0001  0.0000
                                        -0.0273 -0.0024 -0.0213  0.0003  0.0001
                                        -0.0014  0.0163  0.0002  0.0002 -0.0106
                                         0.0108
  37. (1.98437) BD ( 1) C  9- C 10
               ( 50.00%)   0.7071* C  9 s( 36.59%)p 1.73( 63.24%)d 0.00(  0.12%)
                                                  f 0.00(  0.05%)
                                         0.0000  0.6047  0.0138 -0.0023 -0.0002
                                        -0.7393  0.0308  0.0016  0.2907  0.0145
                                         0.0039  0.0111 -0.0004  0.0000 -0.0238
                                         0.0005 -0.0007  0.0000  0.0004  0.0000
                                         0.0122  0.0046 -0.0212  0.0014 -0.0006
                                         0.0153 -0.0072  0.0005 -0.0004 -0.0087
                                         0.0124
               ( 50.00%)   0.7071* C 10 s( 36.30%)p 1.75( 63.53%)d 0.00(  0.12%)
                                                  f 0.00(  0.05%)
                                         0.0000  0.6024  0.0087 -0.0003  0.0000
                                         0.7237 -0.0124  0.0049 -0.3319  0.0334
                                         0.0013 -0.0110  0.0002 -0.0001 -0.0143
                                        -0.0036 -0.0009  0.0001  0.0002  0.0001
                                         0.0228 -0.0011 -0.0219  0.0022  0.0006
                                        -0.0158  0.0056 -0.0004  0.0004  0.0021
                                        -0.0147
  38. (1.97936) BD ( 1) C  9- H 20
               ( 60.39%)   0.7771* C  9 s( 27.62%)p 2.62( 72.27%)d 0.00(  0.07%)
                                                  f 0.00(  0.04%)
                                         0.0000  0.5254 -0.0114  0.0049  0.0000
                                         0.0977  0.0037  0.0034 -0.8443 -0.0108
                                        -0.0099 -0.0020  0.0000 -0.0001 -0.0054
                                        -0.0007 -0.0001  0.0001  0.0001  0.0000
                                        -0.0197 -0.0054 -0.0148  0.0003  0.0001
                                        -0.0019  0.0175  0.0001  0.0002 -0.0038
                                         0.0097
               ( 39.61%)   0.6294* H 20 s( 99.96%)p 0.00(  0.03%)d 0.00(  0.01%)
                                         0.9998 -0.0021 -0.0007  0.0024  0.0004
                                        -0.0174  0.0001  0.0000  0.0000 -0.0017
                                         0.0000  0.0000 -0.0069 -0.0028
  39. (1.98366) BD ( 1) C 10- C 11
               ( 50.12%)   0.7080* C 10 s( 36.03%)p 1.77( 63.79%)d 0.00(  0.12%)
                                                  f 0.00(  0.05%)
                                         0.0000  0.6002  0.0080 -0.0021  0.0000
                                        -0.1378  0.0285  0.0032  0.7860 -0.0182
                                         0.0014  0.0026 -0.0004  0.0000 -0.0003
                                        -0.0041 -0.0001  0.0001  0.0000  0.0001
                                        -0.0277 -0.0004 -0.0212  0.0020 -0.0001
                                         0.0017 -0.0174 -0.0002 -0.0002  0.0096
                                        -0.0119
               ( 49.88%)   0.7062* C 11 s( 35.73%)p 1.79( 64.10%)d 0.00(  0.12%)
                                                  f 0.00(  0.05%)
                                         0.0000  0.5977  0.0083 -0.0013  0.0000
                                         0.0715  0.0230  0.0059 -0.7965  0.0300
                                        -0.0008 -0.0015 -0.0003 -0.0001 -0.0137
                                         0.0030 -0.0002  0.0001  0.0002  0.0000
                                        -0.0226 -0.0031 -0.0218  0.0019  0.0001
                                        -0.0031  0.0164  0.0000  0.0001 -0.0022
                                         0.0137
  40. (1.69836) BD ( 2) C 10- C 11
               ( 47.39%)   0.6884* C 10 s(  0.00%)p 1.00( 99.94%)d 0.00(  0.03%)
                                                  f 0.00(  0.03%)
                                         0.0000  0.0000  0.0000  0.0000  0.0000
                                         0.0148  0.0003 -0.0002 -0.0007  0.0000
                                         0.0000  0.9993  0.0195 -0.0108  0.0002
                                         0.0001  0.0064 -0.0010  0.0135  0.0052
                                         0.0001  0.0000 -0.0001  0.0000 -0.0181
                                        -0.0007  0.0001  0.0007 -0.0033  0.0000
                                        -0.0001
               ( 52.61%)   0.7253* C 11 s(  0.00%)p 1.00( 99.94%)d 0.00(  0.02%)
                                                  f 0.00(  0.04%)
                                         0.0000  0.0000  0.0000  0.0000  0.0000
                                         0.0147  0.0004 -0.0002 -0.0005  0.0000
                                         0.0000  0.9992  0.0252 -0.0116 -0.0002
                                        -0.0001  0.0097  0.0009 -0.0097 -0.0048
                                         0.0001  0.0000 -0.0002  0.0000 -0.0186
                                        -0.0006  0.0000 -0.0010  0.0024  0.0000
                                         0.0000
  41. (1.97990) BD ( 1) C 10- H 21
               ( 60.55%)   0.7781* C 10 s( 27.54%)p 2.63( 72.35%)d 0.00(  0.07%)
                                                  f 0.00(  0.04%)
                                         0.0000  0.5246 -0.0145  0.0024 -0.0001
                                        -0.6739 -0.0139 -0.0055 -0.5185 -0.0111
                                        -0.0049  0.0096  0.0002  0.0001  0.0225
                                         0.0029 -0.0004  0.0000 -0.0003  0.0000
                                         0.0053  0.0010 -0.0121 -0.0003 -0.0005
                                         0.0140  0.0109  0.0003  0.0004  0.0041
                                        -0.0101
               ( 39.45%)   0.6281* H 21 s( 99.96%)p 0.00(  0.03%)d 0.00(  0.01%)
                                         0.9998 -0.0014 -0.0007 -0.0138  0.0014
                                        -0.0107  0.0011  0.0002  0.0000  0.0069
                                        -0.0001 -0.0001  0.0019 -0.0028
  42. (1.98369) BD ( 1) C 11- C 12
               ( 49.97%)   0.7069* C 11 s( 35.58%)p 1.81( 64.26%)d 0.00(  0.12%)
                                                  f 0.00(  0.05%)
                                         0.0000  0.5964  0.0076 -0.0012  0.0000
                                         0.6237 -0.0049  0.0052  0.5020 -0.0374
                                        -0.0033 -0.0089  0.0001 -0.0001  0.0217
                                         0.0033 -0.0008  0.0001 -0.0003  0.0000
                                         0.0145 -0.0029 -0.0217  0.0020  0.0005
                                        -0.0138 -0.0090 -0.0002 -0.0004 -0.0075
                                         0.0116
               ( 50.03%)   0.7073* C 12 s( 35.83%)p 1.79( 64.00%)d 0.00(  0.12%)
                                                  f 0.00(  0.05%)
                                         0.0000  0.5985  0.0083 -0.0019  0.0000
                                        -0.6614  0.0322  0.0011 -0.4487 -0.0080
                                        -0.0031  0.0097 -0.0005  0.0000  0.0277
                                         0.0001 -0.0005  0.0000 -0.0004  0.0000
                                         0.0012  0.0042 -0.0207  0.0020 -0.0005
                                         0.0135  0.0108  0.0003  0.0005  0.0007
                                        -0.0152
  43. (1.98103) BD ( 1) C 11- H 22
               ( 60.64%)   0.7787* C 11 s( 28.56%)p 2.50( 71.33%)d 0.00(  0.07%)
                                                  f 0.00(  0.04%)
                                         0.0000  0.5342 -0.0135  0.0025 -0.0001
                                        -0.7768 -0.0115 -0.0100  0.3309  0.0047
                                         0.0043  0.0116  0.0002  0.0001 -0.0160
                                        -0.0023 -0.0005 -0.0001  0.0002  0.0000
                                         0.0156  0.0022 -0.0117 -0.0012 -0.0006
                                         0.0162 -0.0068  0.0005 -0.0004 -0.0040
                                         0.0108
               ( 39.36%)   0.6274* H 22 s( 99.96%)p 0.00(  0.03%)d 0.00(  0.01%)
                                         0.9998 -0.0011 -0.0008 -0.0162  0.0002
                                         0.0069  0.0001  0.0002  0.0000 -0.0052
                                        -0.0002  0.0001  0.0050 -0.0031
  44. (1.98440) BD ( 1) C 12- C 13
               ( 50.12%)   0.7080* C 12 s( 36.60%)p 1.73( 63.23%)d 0.00(  0.12%)
                                                  f 0.00(  0.05%)
                                         0.0000  0.6049  0.0083 -0.0002  0.0001
                                         0.7406 -0.0326  0.0027 -0.2872 -0.0135
                                        -0.0044 -0.0111  0.0005  0.0000 -0.0228
                                         0.0010 -0.0008  0.0000  0.0004  0.0000
                                         0.0141  0.0034 -0.0215  0.0020  0.0006
                                        -0.0149  0.0073 -0.0005  0.0004  0.0086
                                        -0.0123
               ( 49.88%)   0.7062* C 13 s( 36.75%)p 1.72( 63.07%)d 0.00(  0.13%)
                                                  f 0.00(  0.05%)
                                         0.0000  0.6060  0.0157 -0.0031 -0.0001
                                        -0.7233  0.0099 -0.0021  0.3259 -0.0329
                                        -0.0045  0.0109 -0.0002  0.0000 -0.0136
                                        -0.0045 -0.0009  0.0000  0.0002  0.0001
                                         0.0240  0.0001 -0.0216  0.0011 -0.0006
                                         0.0157 -0.0058  0.0004 -0.0004 -0.0024
                                         0.0152
  45. (1.72130) BD ( 2) C 12- C 13
               ( 49.09%)   0.7006* C 12 s(  0.00%)p 1.00( 99.93%)d 0.00(  0.03%)
                                                  f 0.00(  0.04%)
                                         0.0000  0.0000  0.0000  0.0000  0.0000
                                         0.0149  0.0004 -0.0002 -0.0004  0.0000
                                         0.0000  0.9992  0.0230 -0.0113 -0.0002
                                         0.0000  0.0105  0.0039 -0.0147  0.0004
                                         0.0001  0.0001 -0.0003 -0.0001 -0.0185
                                        -0.0007  0.0000  0.0029  0.0013  0.0001
                                         0.0000
               ( 50.91%)   0.7135* C 13 s(  0.00%)p 1.00( 99.93%)d 0.00(  0.04%)
                                                  f 0.00(  0.03%)
                                         0.0000  0.0000 -0.0001  0.0000  0.0000
                                         0.0150  0.0003 -0.0002 -0.0004  0.0000
                                         0.0000  0.9993  0.0181 -0.0122 -0.0001
                                         0.0000 -0.0186 -0.0027 -0.0053  0.0033
                                        -0.0003  0.0000  0.0005  0.0001 -0.0180
                                        -0.0006  0.0001 -0.0016 -0.0023  0.0000
                                         0.0000
  46. (1.97992) BD ( 1) C 12- H 23
               ( 60.55%)   0.7781* C 12 s( 27.45%)p 2.64( 72.44%)d 0.00(  0.07%)
                                                  f 0.00(  0.04%)
                                         0.0000  0.5237 -0.0144  0.0022 -0.0001
                                        -0.0997 -0.0025  0.0000  0.8450  0.0174
                                         0.0069  0.0018  0.0001  0.0000 -0.0046
                                        -0.0010  0.0000  0.0000  0.0001  0.0000
                                        -0.0225 -0.0030 -0.0123 -0.0002 -0.0001
                                         0.0019 -0.0176  0.0000 -0.0002  0.0040
                                        -0.0099
               ( 39.45%)   0.6281* H 23 s( 99.96%)p 0.00(  0.03%)d 0.00(  0.01%)
                                         0.9998 -0.0014 -0.0007 -0.0021 -0.0003
                                         0.0174  0.0020  0.0000  0.0000 -0.0018
                                         0.0000  0.0000 -0.0069 -0.0028
  47. (1.97876) BD ( 1) C 13- H 24
               ( 61.45%)   0.7839* C 13 s( 28.40%)p 2.52( 71.49%)d 0.00(  0.07%)
                                                  f 0.00(  0.04%)
                                         0.0000  0.5328 -0.0111  0.0056 -0.0002
                                         0.6751  0.0082  0.0106  0.5087  0.0071
                                         0.0030 -0.0099 -0.0001 -0.0002  0.0194
                                         0.0053 -0.0005  0.0000 -0.0003 -0.0001
                                         0.0066  0.0015 -0.0142 -0.0004  0.0005
                                        -0.0137 -0.0105 -0.0003 -0.0004 -0.0029
                                         0.0106
               ( 38.55%)   0.6209* H 24 s( 99.96%)p 0.00(  0.03%)d 0.00(  0.01%)
                                         0.9998 -0.0028 -0.0008  0.0139 -0.0058
                                         0.0100  0.0023 -0.0002  0.0001  0.0072
                                        -0.0001 -0.0001  0.0020 -0.0023
 ---------------- non-Lewis ----------------------------------------------------
  48. (0.03572) BD*( 1) O  1- C  2
               ( 35.54%)   0.5962* O  1 s( 38.24%)p 1.60( 61.20%)d 0.01(  0.55%)
                                                  f 0.00(  0.01%)
                                         0.0000 -0.6184 -0.0019  0.0007 -0.0003
                                         0.0111  0.0005  0.0000  0.7436 -0.0260
                                         0.0078 -0.2410  0.0009  0.0001  0.0003
                                         0.0001 -0.0007  0.0001  0.0146  0.0002
                                         0.0636  0.0004  0.0357 -0.0002  0.0015
                                         0.0001 -0.0059  0.0024  0.0000  0.0000
                                        -0.0087
               ( 64.46%)  -0.8029* C  2 s( 32.27%)p 2.09( 67.61%)d 0.00(  0.09%)
                                                  f 0.00(  0.03%)
                                         0.0000 -0.5666  0.0404 -0.0054  0.0004
                                         0.0137 -0.0062 -0.0002 -0.7905  0.0514
                                         0.0014 -0.2199 -0.0062  0.0027 -0.0002
                                        -0.0001 -0.0004  0.0006 -0.0114  0.0023
                                         0.0140  0.0196  0.0087  0.0096  0.0036
                                         0.0010  0.0099 -0.0001 -0.0006 -0.0007
                                         0.0121
  49. (0.39499) BD*( 2) O  1- C  2
               ( 25.53%)   0.5052* O  1 s(  2.09%)p46.61( 97.58%)d 0.15(  0.31%)
                                                  f 0.01(  0.01%)
                                         0.0000 -0.1447 -0.0007  0.0001 -0.0001
                                        -0.0232  0.0001 -0.0001  0.1929 -0.0066
                                         0.0019  0.9685 -0.0035 -0.0008  0.0015
                                         0.0000  0.0030 -0.0004 -0.0526 -0.0009
                                         0.0159  0.0001  0.0102  0.0000 -0.0055
                                         0.0000 -0.0019 -0.0090 -0.0001  0.0003
                                        -0.0022
               ( 74.47%)  -0.8630* C  2 s(  1.89%)p51.76( 97.84%)d 0.13(  0.24%)
                                                  f 0.02(  0.03%)
                                         0.0000 -0.1369  0.0121 -0.0024  0.0000
                                        -0.0085 -0.0004 -0.0002 -0.1720  0.0137
                                        -0.0001  0.9736  0.0207 -0.0118 -0.0012
                                        -0.0001  0.0025 -0.0026  0.0486 -0.0053
                                         0.0033  0.0037  0.0009  0.0018 -0.0170
                                         0.0002  0.0015 -0.0016  0.0025  0.0006
                                         0.0026
  50. (0.08500) BD*( 1) C  2- N  3
               ( 62.05%)   0.7877* C  2 s( 28.71%)p 2.48( 71.21%)d 0.00(  0.06%)
                                                  f 0.00(  0.01%)
                                         0.0000  0.5359  0.0007  0.0014 -0.0002
                                         0.7559 -0.0093 -0.0037 -0.3747  0.0068
                                        -0.0036  0.0155  0.0054 -0.0004 -0.0185
                                        -0.0061  0.0013 -0.0030 -0.0008  0.0017
                                         0.0085  0.0070 -0.0072 -0.0058 -0.0005
                                        -0.0085  0.0042 -0.0001  0.0000 -0.0010
                                        -0.0071
               ( 37.95%)  -0.6161* N  3 s( 34.44%)p 1.90( 65.35%)d 0.01(  0.19%)
                                                  f 0.00(  0.02%)
                                         0.0000  0.5868 -0.0089  0.0004 -0.0003
                                        -0.7029  0.0194  0.0041  0.3986 -0.0070
                                        -0.0028  0.0134  0.0004 -0.0021 -0.0302
                                         0.0000 -0.0084  0.0004  0.0049 -0.0007
                                         0.0163 -0.0001 -0.0258  0.0006 -0.0004
                                         0.0094 -0.0055 -0.0011  0.0028 -0.0008
                                         0.0081
  51. (0.06310) BD*( 1) C  2- C  5
               ( 49.72%)   0.7052* C  2 s( 37.22%)p 1.68( 62.68%)d 0.00(  0.07%)
                                                  f 0.00(  0.03%)
                                         0.0000  0.6094  0.0291 -0.0032  0.0003
                                        -0.6534 -0.0028 -0.0046 -0.4470 -0.0007
                                        -0.0103  0.0007 -0.0006  0.0003  0.0237
                                        -0.0038 -0.0005  0.0002 -0.0002  0.0001
                                         0.0038  0.0011 -0.0067 -0.0051 -0.0002
                                         0.0097  0.0093  0.0001  0.0005  0.0048
                                        -0.0120
               ( 50.28%)  -0.7091* C  5 s( 33.88%)p 1.95( 65.96%)d 0.00(  0.13%)
                                                  f 0.00(  0.04%)
                                         0.0000  0.5818 -0.0128 -0.0092 -0.0003
                                         0.6402 -0.0152  0.0005  0.4994 -0.0045
                                         0.0006 -0.0082  0.0001  0.0001  0.0308
                                        -0.0040 -0.0004 -0.0001 -0.0003 -0.0001
                                         0.0034  0.0001 -0.0166 -0.0005  0.0003
                                        -0.0108 -0.0086 -0.0002 -0.0004  0.0009
                                         0.0137
  52. (0.00907) BD*( 1) N  3- C  4
               ( 39.71%)   0.6301* N  3 s( 34.12%)p 1.92( 65.68%)d 0.00(  0.17%)
                                                  f 0.00(  0.02%)
                                         0.0000 -0.5839 -0.0176  0.0008  0.0001
                                        -0.7029  0.0282  0.0006 -0.3773 -0.0010
                                         0.0061 -0.1400  0.0039  0.0015 -0.0259
                                        -0.0008 -0.0176  0.0001 -0.0093  0.0004
                                        -0.0095 -0.0021  0.0230 -0.0007  0.0050
                                         0.0094  0.0059 -0.0020 -0.0012 -0.0011
                                        -0.0091
               ( 60.29%)  -0.7765* C  4 s( 26.92%)p 2.71( 73.00%)d 0.00(  0.06%)
                                                  f 0.00(  0.01%)
                                         0.0000 -0.5172 -0.0415 -0.0003  0.0001
                                         0.7190 -0.0258 -0.0007  0.4434 -0.0246
                                        -0.0042  0.1224 -0.0096 -0.0016 -0.0152
                                        -0.0082 -0.0054 -0.0025 -0.0021 -0.0022
                                        -0.0104 -0.0031  0.0133  0.0033 -0.0054
                                        -0.0069 -0.0006  0.0014  0.0007 -0.0004
                                         0.0077
  53. (0.01505) BD*( 1) N  3- H 14
               ( 30.43%)   0.5516* N  3 s( 26.91%)p 2.71( 72.92%)d 0.01(  0.15%)
                                                  f 0.00(  0.02%)
                                         0.0000 -0.5188  0.0028 -0.0018 -0.0004
                                         0.0312 -0.0010 -0.0031  0.8251 -0.0122
                                        -0.0036 -0.2172 -0.0009  0.0019 -0.0062
                                         0.0011  0.0013  0.0001  0.0263 -0.0010
                                         0.0228  0.0032  0.0142  0.0007  0.0072
                                        -0.0013 -0.0100  0.0035  0.0007 -0.0002
                                        -0.0063
               ( 69.57%)  -0.8341* H 14 s( 99.89%)p 0.00(  0.11%)d 0.00(  0.01%)
                                        -0.9994  0.0033  0.0008  0.0029 -0.0005
                                         0.0267 -0.0146 -0.0110  0.0023 -0.0004
                                         0.0000  0.0027  0.0064  0.0038
  54. (0.01596) BD*( 1) C  4- H 15
               ( 40.31%)   0.6349* C  4 s( 24.46%)p 3.08( 75.40%)d 0.01(  0.12%)
                                                  f 0.00(  0.02%)
                                         0.0000 -0.4946  0.0073  0.0007 -0.0003
                                        -0.6290 -0.0037  0.0015  0.3018  0.0100
                                        -0.0005  0.5168  0.0083 -0.0032  0.0151
                                        -0.0010  0.0266 -0.0013 -0.0128  0.0005
                                        -0.0113  0.0007 -0.0015  0.0004 -0.0075
                                        -0.0044  0.0021  0.0036 -0.0034 -0.0043
                                         0.0066
               ( 59.69%)  -0.7726* H 15 s( 99.94%)p 0.00(  0.05%)d 0.00(  0.01%)
                                        -0.9997  0.0026  0.0002 -0.0163  0.0007
                                         0.0064 -0.0003  0.0119 -0.0017  0.0044
                                         0.0081 -0.0029 -0.0039  0.0002
  55. (0.02417) BD*( 1) C  4- H 16
               ( 40.60%)   0.6371* C  4 s( 24.44%)p 3.09( 75.43%)d 0.00(  0.12%)
                                                  f 0.00(  0.02%)
                                         0.0000 -0.4942  0.0104 -0.0001  0.0001
                                        -0.2571  0.0062 -0.0027  0.0704  0.0068
                                         0.0003 -0.8265 -0.0093 -0.0003  0.0010
                                        -0.0001 -0.0175  0.0008  0.0036  0.0001
                                        -0.0020  0.0002 -0.0298  0.0014 -0.0066
                                        -0.0094  0.0011 -0.0025 -0.0019 -0.0022
                                         0.0047
               ( 59.40%)  -0.7707* H 16 s( 99.95%)p 0.00(  0.04%)d 0.00(  0.01%)
                                        -0.9997  0.0049  0.0001 -0.0072 -0.0003
                                         0.0006  0.0003 -0.0182  0.0023  0.0004
                                        -0.0055  0.0008 -0.0006 -0.0082
  56. (0.01283) BD*( 1) C  4- H 17
               ( 38.44%)   0.6200* C  4 s( 24.29%)p 3.11( 75.58%)d 0.00(  0.11%)
                                                  f 0.00(  0.02%)
                                         0.0000 -0.4928  0.0110 -0.0005  0.0002
                                         0.1334  0.0078  0.0046 -0.8396 -0.0057
                                        -0.0019  0.1814  0.0053 -0.0003  0.0114
                                        -0.0001 -0.0039  0.0008  0.0132 -0.0012
                                         0.0236 -0.0006  0.0157 -0.0010 -0.0067
                                        -0.0046  0.0055 -0.0009 -0.0022 -0.0012
                                         0.0084
               ( 61.56%)  -0.7846* H 17 s( 99.95%)p 0.00(  0.04%)d 0.00(  0.01%)
                                        -0.9997  0.0034  0.0001  0.0013 -0.0070
                                        -0.0192  0.0018  0.0042  0.0003  0.0016
                                        -0.0006  0.0034  0.0084  0.0040
  57. (0.00954) BD*( 1) C  5- N  6
               ( 59.57%)   0.7718* C  5 s( 35.36%)p 1.83( 64.54%)d 0.00(  0.06%)
                                                  f 0.00(  0.03%)
                                         0.0000  0.5927  0.0489  0.0007 -0.0003
                                        -0.7518  0.0566  0.0104  0.2760 -0.0261
                                        -0.0058  0.0041 -0.0010 -0.0001 -0.0077
                                        -0.0121 -0.0003 -0.0002  0.0001  0.0001
                                         0.0074  0.0103 -0.0142 -0.0054 -0.0003
                                         0.0121 -0.0037  0.0004 -0.0002 -0.0086
                                         0.0100
               ( 40.43%)  -0.6359* N  6 s( 37.56%)p 1.65( 62.00%)d 0.01(  0.40%)
                                                  f 0.00(  0.03%)
                                         0.0000  0.6124  0.0246  0.0016 -0.0001
                                         0.7446 -0.0169 -0.0036 -0.2550 -0.0071
                                         0.0056 -0.0120  0.0002  0.0000 -0.0443
                                        -0.0016 -0.0012  0.0000  0.0006  0.0000
                                         0.0253  0.0013 -0.0373  0.0025  0.0004
                                        -0.0105  0.0041 -0.0004  0.0002  0.0125
                                        -0.0079
  58. (0.04217) BD*( 1) C  5- H 18
               ( 42.15%)   0.6493* C  5 s( 30.85%)p 2.24( 69.03%)d 0.00(  0.09%)
                                                  f 0.00(  0.04%)
                                         0.0000 -0.5549  0.0214 -0.0082 -0.0003
                                        -0.1347  0.0067 -0.0054  0.8195 -0.0147
                                         0.0195  0.0007 -0.0012  0.0003  0.0099
                                        -0.0012 -0.0001  0.0001 -0.0001 -0.0003
                                         0.0196  0.0044  0.0186 -0.0030 -0.0001
                                         0.0035 -0.0159 -0.0002 -0.0001  0.0063
                                        -0.0073
               ( 57.85%)  -0.7606* H 18 s( 99.96%)p 0.00(  0.03%)d 0.00(  0.00%)
                                        -0.9998  0.0089 -0.0007 -0.0005  0.0043
                                        -0.0154 -0.0084 -0.0008  0.0004  0.0024
                                        -0.0002  0.0000  0.0057  0.0033
  59. (0.00952) BD*( 1) N  6- C  7
               ( 40.65%)   0.6376* N  6 s( 37.99%)p 1.62( 61.58%)d 0.01(  0.40%)
                                                  f 0.00(  0.03%)
                                         0.0000 -0.6162 -0.0139 -0.0011  0.0000
                                         0.6540 -0.0146 -0.0021  0.4333 -0.0060
                                        -0.0054 -0.0083  0.0001  0.0000 -0.0507
                                        -0.0023  0.0009 -0.0001  0.0007  0.0000
                                        -0.0013 -0.0003  0.0372 -0.0023  0.0003
                                        -0.0090 -0.0063 -0.0002 -0.0004  0.0038
                                         0.0141
               ( 59.35%)  -0.7704* C  7 s( 34.97%)p 1.86( 64.94%)d 0.00(  0.06%)
                                                  f 0.00(  0.03%)
                                         0.0000 -0.5899 -0.0416 -0.0004  0.0006
                                        -0.6664  0.0428  0.0074 -0.4498  0.0301
                                         0.0041  0.0103 -0.0006 -0.0001 -0.0135
                                        -0.0140  0.0004  0.0002  0.0002  0.0002
                                        -0.0034 -0.0029  0.0136  0.0036 -0.0004
                                         0.0108  0.0065  0.0002  0.0004  0.0002
                                        -0.0131
  60. (0.43729) BD*( 2) N  6- C  7
               ( 51.52%)   0.7178* N  6 s(  0.00%)p 1.00( 99.70%)d 0.00(  0.27%)
                                                  f 0.00(  0.03%)
                                         0.0000  0.0015  0.0003  0.0001  0.0000
                                         0.0146 -0.0005  0.0000 -0.0008  0.0002
                                         0.0000  0.9983 -0.0162  0.0011 -0.0007
                                        -0.0001 -0.0077 -0.0069 -0.0507 -0.0018
                                         0.0000 -0.0001  0.0002  0.0001 -0.0127
                                        -0.0006 -0.0001  0.0099  0.0037  0.0002
                                         0.0001
               ( 48.48%)  -0.6962* C  7 s(  0.00%)p 1.00( 99.93%)d 0.00(  0.04%)
                                                  f 0.00(  0.03%)
                                         0.0000  0.0004  0.0001  0.0001  0.0000
                                         0.0151  0.0001  0.0000  0.0000  0.0000
                                         0.0000  0.9990  0.0288 -0.0124  0.0002
                                         0.0000  0.0124  0.0012  0.0151 -0.0010
                                         0.0002  0.0000 -0.0003 -0.0001 -0.0185
                                        -0.0007  0.0000  0.0026  0.0004  0.0001
                                         0.0000
  61. (0.02371) BD*( 1) C  7- C  8
               ( 51.75%)   0.7194* C  7 s( 35.69%)p 1.80( 64.19%)d 0.00(  0.08%)
                                                  f 0.00(  0.04%)
                                         0.0000  0.5973 -0.0003 -0.0070  0.0002
                                        -0.7379  0.0176 -0.0024  0.3116 -0.0001
                                         0.0003  0.0109 -0.0003  0.0000 -0.0195
                                         0.0042 -0.0006  0.0001  0.0003 -0.0001
                                         0.0133 -0.0014 -0.0157  0.0026 -0.0004
                                         0.0122 -0.0055  0.0004 -0.0003 -0.0091
                                         0.0103
               ( 48.25%)  -0.6946* C  8 s( 33.61%)p 1.97( 66.28%)d 0.00(  0.06%)
                                                  f 0.00(  0.05%)
                                         0.0000  0.5797 -0.0010  0.0003  0.0001
                                         0.7497  0.0034  0.0065 -0.3171  0.0047
                                        -0.0016 -0.0112  0.0000 -0.0001 -0.0148
                                        -0.0008 -0.0005  0.0000  0.0002  0.0000
                                         0.0151 -0.0006 -0.0114 -0.0006  0.0006
                                        -0.0162  0.0067 -0.0005  0.0004  0.0063
                                        -0.0140
  62. (0.04474) BD*( 1) C  7- H 19
               ( 41.98%)   0.6479* C  7 s( 29.43%)p 2.39( 70.46%)d 0.00(  0.08%)
                                                  f 0.00(  0.03%)
                                         0.0000 -0.5416  0.0310 -0.0061 -0.0003
                                        -0.0860 -0.0047  0.0013  0.8347 -0.0022
                                         0.0210  0.0015  0.0000  0.0000  0.0009
                                         0.0030  0.0001 -0.0001  0.0000 -0.0001
                                         0.0222 -0.0005  0.0165 -0.0061  0.0000
                                         0.0010 -0.0157  0.0000 -0.0002  0.0005
                                        -0.0098
               ( 58.02%)  -0.7617* H 19 s( 99.96%)p 0.00(  0.03%)d 0.00(  0.00%)
                                        -0.9998  0.0103 -0.0008  0.0018 -0.0010
                                        -0.0156 -0.0078 -0.0001  0.0000  0.0009
                                         0.0000  0.0000  0.0063  0.0025
  63. (0.02009) BD*( 1) C  8- C  9
               ( 49.30%)   0.7022* C  8 s( 33.21%)p 2.01( 66.67%)d 0.00(  0.07%)
                                                  f 0.00(  0.05%)
                                         0.0000 -0.5763 -0.0026  0.0001  0.0001
                                         0.6529  0.0063  0.0020  0.4900 -0.0155
                                        -0.0018 -0.0094 -0.0001  0.0000 -0.0190
                                        -0.0021  0.0005 -0.0001  0.0003  0.0000
                                        -0.0074  0.0005  0.0156 -0.0027  0.0005
                                        -0.0150 -0.0098 -0.0003 -0.0004 -0.0036
                                         0.0126
               ( 50.70%)  -0.7120* C  9 s( 35.65%)p 1.80( 64.18%)d 0.00(  0.11%)
                                                  f 0.00(  0.05%)
                                         0.0000 -0.5971  0.0006  0.0026 -0.0002
                                        -0.6634  0.0259 -0.0030 -0.4482 -0.0020
                                        -0.0035  0.0095 -0.0004  0.0000 -0.0260
                                        -0.0018  0.0006  0.0000  0.0004  0.0000
                                        -0.0042 -0.0025  0.0210 -0.0007 -0.0004
                                         0.0127  0.0101  0.0003  0.0005 -0.0007
                                        -0.0152
  64. (0.41922) BD*( 2) C  8- C  9
               ( 53.39%)   0.7307* C  8 s(  0.00%)p 1.00( 99.94%)d 0.00(  0.02%)
                                                  f 0.00(  0.04%)
                                         0.0000  0.0001  0.0001  0.0000  0.0000
                                        -0.0148 -0.0002  0.0001  0.0006  0.0000
                                         0.0000 -0.9995 -0.0082  0.0066  0.0000
                                         0.0000  0.0149  0.0012  0.0025  0.0026
                                         0.0002  0.0000 -0.0004  0.0000  0.0190
                                         0.0007 -0.0001 -0.0005  0.0031  0.0000
                                         0.0001
               ( 46.61%)  -0.6827* C  9 s(  0.00%)p 1.00( 99.94%)d 0.00(  0.03%)
                                                  f 0.00(  0.04%)
                                         0.0000  0.0000  0.0001  0.0000  0.0000
                                        -0.0148 -0.0003  0.0002  0.0007  0.0000
                                         0.0000 -0.9993 -0.0198  0.0124 -0.0002
                                         0.0000 -0.0021 -0.0031 -0.0157 -0.0009
                                         0.0000 -0.0001  0.0000  0.0001  0.0188
                                         0.0008  0.0000 -0.0033  0.0000 -0.0001
                                         0.0000
  65. (0.02453) BD*( 1) C  8- C 13
               ( 49.18%)   0.7013* C  8 s( 33.05%)p 2.02( 66.84%)d 0.00(  0.06%)
                                                  f 0.00(  0.05%)
                                         0.0000 -0.5749 -0.0001 -0.0005  0.0001
                                         0.1014  0.0122  0.0025 -0.8111  0.0088
                                         0.0004 -0.0020 -0.0002  0.0000  0.0083
                                        -0.0017  0.0001 -0.0001 -0.0002  0.0000
                                         0.0180  0.0025  0.0148 -0.0019  0.0002
                                        -0.0036  0.0175  0.0000  0.0002 -0.0055
                                         0.0123
               ( 50.82%)  -0.7129* C 13 s( 34.72%)p 1.88( 65.11%)d 0.00(  0.12%)
                                                  f 0.00(  0.05%)
                                         0.0000 -0.5892  0.0020  0.0028 -0.0003
                                        -0.1343  0.0175  0.0011  0.7953 -0.0148
                                         0.0030  0.0024 -0.0003  0.0000  0.0024
                                         0.0030  0.0001  0.0000 -0.0001  0.0000
                                         0.0273  0.0024  0.0213 -0.0003 -0.0001
                                         0.0014 -0.0163 -0.0002 -0.0002  0.0106
                                        -0.0108
  66. (0.01215) BD*( 1) C  9- C 10
               ( 50.00%)   0.7071* C  9 s( 36.59%)p 1.73( 63.24%)d 0.00(  0.12%)
                                                  f 0.00(  0.05%)
                                         0.0000  0.6047  0.0138 -0.0023 -0.0002
                                        -0.7393  0.0308  0.0016  0.2907  0.0145
                                         0.0039  0.0111 -0.0004  0.0000 -0.0238
                                         0.0005 -0.0007  0.0000  0.0004  0.0000
                                         0.0122  0.0046 -0.0212  0.0014 -0.0006
                                         0.0153 -0.0072  0.0005 -0.0004 -0.0087
                                         0.0124
               ( 50.00%)  -0.7071* C 10 s( 36.30%)p 1.75( 63.53%)d 0.00(  0.12%)
                                                  f 0.00(  0.05%)
                                         0.0000  0.6024  0.0087 -0.0003  0.0000
                                         0.7237 -0.0124  0.0049 -0.3319  0.0334
                                         0.0013 -0.0110  0.0002 -0.0001 -0.0143
                                        -0.0036 -0.0009  0.0001  0.0002  0.0001
                                         0.0228 -0.0011 -0.0219  0.0022  0.0006
                                        -0.0158  0.0056 -0.0004  0.0004  0.0021
                                        -0.0147
  67. (0.01457) BD*( 1) C  9- H 20
               ( 39.61%)   0.6294* C  9 s( 27.62%)p 2.62( 72.27%)d 0.00(  0.07%)
                                                  f 0.00(  0.04%)
                                         0.0000 -0.5254  0.0114 -0.0049  0.0000
                                        -0.0977 -0.0037 -0.0034  0.8443  0.0108
                                         0.0099  0.0020  0.0000  0.0001  0.0054
                                         0.0007  0.0001 -0.0001 -0.0001  0.0000
                                         0.0197  0.0054  0.0148 -0.0003 -0.0001
                                         0.0019 -0.0175 -0.0001 -0.0002  0.0038
                                        -0.0097
               ( 60.39%)  -0.7771* H 20 s( 99.96%)p 0.00(  0.03%)d 0.00(  0.01%)
                                        -0.9998  0.0021  0.0007 -0.0024 -0.0004
                                         0.0174 -0.0001  0.0000  0.0000  0.0017
                                         0.0000  0.0000  0.0069  0.0028
  68. (0.01457) BD*( 1) C 10- C 11
               ( 49.88%)   0.7062* C 10 s( 36.03%)p 1.77( 63.79%)d 0.00(  0.12%)
                                                  f 0.00(  0.05%)
                                         0.0000  0.6002  0.0080 -0.0021  0.0000
                                        -0.1378  0.0285  0.0032  0.7860 -0.0182
                                         0.0014  0.0026 -0.0004  0.0000 -0.0003
                                        -0.0041 -0.0001  0.0001  0.0000  0.0001
                                        -0.0277 -0.0004 -0.0212  0.0020 -0.0001
                                         0.0017 -0.0174 -0.0002 -0.0002  0.0096
                                        -0.0119
               ( 50.12%)  -0.7080* C 11 s( 35.73%)p 1.79( 64.10%)d 0.00(  0.12%)
                                                  f 0.00(  0.05%)
                                         0.0000  0.5977  0.0083 -0.0013  0.0000
                                         0.0715  0.0230  0.0059 -0.7965  0.0300
                                        -0.0008 -0.0015 -0.0003 -0.0001 -0.0137
                                         0.0030 -0.0002  0.0001  0.0002  0.0000
                                        -0.0226 -0.0031 -0.0218  0.0019  0.0001
                                        -0.0031  0.0164  0.0000  0.0001 -0.0022
                                         0.0137
  69. (0.38531) BD*( 2) C 10- C 11
               ( 52.61%)   0.7253* C 10 s(  0.00%)p 1.00( 99.94%)d 0.00(  0.03%)
                                                  f 0.00(  0.03%)
                                         0.0000  0.0000  0.0000  0.0000  0.0000
                                        -0.0148 -0.0003  0.0002  0.0007  0.0000
                                         0.0000 -0.9993 -0.0195  0.0108 -0.0002
                                        -0.0001 -0.0064  0.0010 -0.0135 -0.0052
                                        -0.0001  0.0000  0.0001  0.0000  0.0181
                                         0.0007 -0.0001 -0.0007  0.0033  0.0000
                                         0.0001
               ( 47.39%)  -0.6884* C 11 s(  0.00%)p 1.00( 99.94%)d 0.00(  0.02%)
                                                  f 0.00(  0.04%)
                                         0.0000  0.0000  0.0000  0.0000  0.0000
                                        -0.0147 -0.0004  0.0002  0.0005  0.0000
                                         0.0000 -0.9992 -0.0252  0.0116  0.0002
                                         0.0001 -0.0097 -0.0009  0.0097  0.0048
                                        -0.0001  0.0000  0.0002  0.0000  0.0186
                                         0.0006  0.0000  0.0010 -0.0024  0.0000
                                         0.0000
  70. (0.01342) BD*( 1) C 10- H 21
               ( 39.45%)   0.6281* C 10 s( 27.54%)p 2.63( 72.35%)d 0.00(  0.07%)
                                                  f 0.00(  0.04%)
                                         0.0000 -0.5246  0.0145 -0.0024  0.0001
                                         0.6739  0.0139  0.0055  0.5185  0.0111
                                         0.0049 -0.0096 -0.0002 -0.0001 -0.0225
                                        -0.0029  0.0004  0.0000  0.0003  0.0000
                                        -0.0053 -0.0010  0.0121  0.0003  0.0005
                                        -0.0140 -0.0109 -0.0003 -0.0004 -0.0041
                                         0.0101
               ( 60.55%)  -0.7781* H 21 s( 99.96%)p 0.00(  0.03%)d 0.00(  0.01%)
                                        -0.9998  0.0014  0.0007  0.0138 -0.0014
                                         0.0107 -0.0011 -0.0002  0.0000 -0.0069
                                         0.0001  0.0001 -0.0019  0.0028
  71. (0.01503) BD*( 1) C 11- C 12
               ( 50.03%)   0.7073* C 11 s( 35.58%)p 1.81( 64.26%)d 0.00(  0.12%)
                                                  f 0.00(  0.05%)
                                         0.0000 -0.5964 -0.0076  0.0012  0.0000
                                        -0.6237  0.0049 -0.0052 -0.5020  0.0374
                                         0.0033  0.0089 -0.0001  0.0001 -0.0217
                                        -0.0033  0.0008 -0.0001  0.0003  0.0000
                                        -0.0145  0.0029  0.0217 -0.0020 -0.0005
                                         0.0138  0.0090  0.0002  0.0004  0.0075
                                        -0.0116
               ( 49.97%)  -0.7069* C 12 s( 35.83%)p 1.79( 64.00%)d 0.00(  0.12%)
                                                  f 0.00(  0.05%)
                                         0.0000 -0.5985 -0.0083  0.0019  0.0000
                                         0.6614 -0.0322 -0.0011  0.4487  0.0080
                                         0.0031 -0.0097  0.0005  0.0000 -0.0277
                                        -0.0001  0.0005  0.0000  0.0004  0.0000
                                        -0.0012 -0.0042  0.0207 -0.0020  0.0005
                                        -0.0135 -0.0108 -0.0003 -0.0005 -0.0007
                                         0.0152
  72. (0.01283) BD*( 1) C 11- H 22
               ( 39.36%)   0.6274* C 11 s( 28.56%)p 2.50( 71.33%)d 0.00(  0.07%)
                                                  f 0.00(  0.04%)
                                         0.0000 -0.5342  0.0135 -0.0025  0.0001
                                         0.7768  0.0115  0.0100 -0.3309 -0.0047
                                        -0.0043 -0.0116 -0.0002 -0.0001  0.0160
                                         0.0023  0.0005  0.0001 -0.0002  0.0000
                                        -0.0156 -0.0022  0.0117  0.0012  0.0006
                                        -0.0162  0.0068 -0.0005  0.0004  0.0040
                                        -0.0108
               ( 60.64%)  -0.7787* H 22 s( 99.96%)p 0.00(  0.03%)d 0.00(  0.01%)
                                        -0.9998  0.0011  0.0008  0.0162 -0.0002
                                        -0.0069 -0.0001 -0.0002  0.0000  0.0052
                                         0.0002 -0.0001 -0.0050  0.0031
  73. (0.01239) BD*( 1) C 12- C 13
               ( 49.88%)   0.7062* C 12 s( 36.60%)p 1.73( 63.23%)d 0.00(  0.12%)
                                                  f 0.00(  0.05%)
                                         0.0000 -0.6049 -0.0083  0.0002 -0.0001
                                        -0.7406  0.0326 -0.0027  0.2872  0.0135
                                         0.0044  0.0111 -0.0005  0.0000  0.0228
                                        -0.0010  0.0008  0.0000 -0.0004  0.0000
                                        -0.0141 -0.0034  0.0215 -0.0020 -0.0006
                                         0.0149 -0.0073  0.0005 -0.0004 -0.0086
                                         0.0123
               ( 50.12%)  -0.7080* C 13 s( 36.75%)p 1.72( 63.07%)d 0.00(  0.13%)
                                                  f 0.00(  0.05%)
                                         0.0000 -0.6060 -0.0157  0.0031  0.0001
                                         0.7233 -0.0099  0.0021 -0.3259  0.0329
                                         0.0045 -0.0109  0.0002  0.0000  0.0136
                                         0.0045  0.0009  0.0000 -0.0002 -0.0001
                                        -0.0240 -0.0001  0.0216 -0.0011  0.0006
                                        -0.0157  0.0058 -0.0004  0.0004  0.0024
                                        -0.0152
  74. (0.31435) BD*( 2) C 12- C 13
               ( 50.91%)   0.7135* C 12 s(  0.00%)p 1.00( 99.93%)d 0.00(  0.03%)
                                                  f 0.00(  0.04%)
                                         0.0000  0.0000  0.0000  0.0000  0.0000
                                        -0.0149 -0.0004  0.0002  0.0004  0.0000
                                         0.0000 -0.9992 -0.0230  0.0113  0.0002
                                         0.0000 -0.0105 -0.0039  0.0147 -0.0004
                                        -0.0001 -0.0001  0.0003  0.0001  0.0185
                                         0.0007  0.0000 -0.0029 -0.0013 -0.0001
                                         0.0000
               ( 49.09%)  -0.7006* C 13 s(  0.00%)p 1.00( 99.93%)d 0.00(  0.04%)
                                                  f 0.00(  0.03%)
                                         0.0000  0.0000  0.0001  0.0000  0.0000
                                        -0.0150 -0.0003  0.0002  0.0004  0.0000
                                         0.0000 -0.9993 -0.0181  0.0122  0.0001
                                         0.0000  0.0186  0.0027  0.0053 -0.0033
                                         0.0003  0.0000 -0.0005 -0.0001  0.0180
                                         0.0006 -0.0001  0.0016  0.0023  0.0000
                                         0.0000
  75. (0.01374) BD*( 1) C 12- H 23
               ( 39.45%)   0.6281* C 12 s( 27.45%)p 2.64( 72.44%)d 0.00(  0.07%)
                                                  f 0.00(  0.04%)
                                         0.0000 -0.5237  0.0144 -0.0022  0.0001
                                         0.0997  0.0025  0.0000 -0.8450 -0.0174
                                        -0.0069 -0.0018 -0.0001  0.0000  0.0046
                                         0.0010  0.0000  0.0000 -0.0001  0.0000
                                         0.0225  0.0030  0.0123  0.0002  0.0001
                                        -0.0019  0.0176  0.0000  0.0002 -0.0040
                                         0.0099
               ( 60.55%)  -0.7781* H 23 s( 99.96%)p 0.00(  0.03%)d 0.00(  0.01%)
                                        -0.9998  0.0014  0.0007  0.0021  0.0003
                                        -0.0174 -0.0020  0.0000  0.0000  0.0018
                                         0.0000  0.0000  0.0069  0.0028
  76. (0.01503) BD*( 1) C 13- H 24
               ( 38.55%)   0.6209* C 13 s( 28.40%)p 2.52( 71.49%)d 0.00(  0.07%)
                                                  f 0.00(  0.04%)
                                         0.0000 -0.5328  0.0111 -0.0056  0.0002
                                        -0.6751 -0.0082 -0.0106 -0.5087 -0.0071
                                        -0.0030  0.0099  0.0001  0.0002 -0.0194
                                        -0.0053  0.0005  0.0000  0.0003  0.0001
                                        -0.0066 -0.0015  0.0142  0.0004 -0.0005
                                         0.0137  0.0105  0.0003  0.0004  0.0029
                                        -0.0106
               ( 61.45%)  -0.7839* H 24 s( 99.96%)p 0.00(  0.03%)d 0.00(  0.01%)
                                        -0.9998  0.0028  0.0008 -0.0139  0.0058
                                        -0.0100 -0.0023  0.0002 -0.0001 -0.0072
                                         0.0001  0.0001 -0.0020  0.0023
  77. (0.00258) RY ( 1) O  1            s(  1.74%)p54.69( 95.35%)d 1.65(  2.89%)
                                                  f 0.01(  0.02%)
                                         0.0000 -0.0002  0.1317 -0.0099 -0.0015
                                         0.0033 -0.7762 -0.0432  0.0032 -0.0085
                                         0.0119 -0.0023 -0.5895 -0.0381 -0.1300
                                        -0.0733 -0.0081  0.0027 -0.0081 -0.0624
                                        -0.0032  0.0001 -0.0499  0.0078 -0.0005
                                        -0.0004  0.0034  0.0021 -0.0023 -0.0113
                                        -0.0036
  78. (0.00239) RY ( 2) O  1            s(  1.08%)p90.03( 96.90%)d 1.88(  2.02%)
                                                  f 0.00(  0.00%)
                                         0.0000  0.0003  0.1033 -0.0092 -0.0006
                                         0.0026 -0.5743 -0.0384  0.0017 -0.0029
                                         0.0184  0.0043  0.7968  0.0491 -0.0720
                                        -0.0606  0.0478 -0.0068  0.0233  0.0813
                                         0.0100 -0.0056 -0.0416  0.0036 -0.0002
                                         0.0015  0.0024 -0.0030 -0.0008 -0.0027
                                        -0.0030
  79. (0.00030) RY ( 3) O  1            s( 69.71%)p 0.13(  9.34%)d 0.28( 19.62%)
                                                  f 0.02(  1.33%)
                                         0.0000  0.0032  0.8332  0.0530  0.0052
                                         0.0179  0.1103 -0.0456 -0.0004 -0.2142
                                         0.1810 -0.0013 -0.0124  0.0053  0.3836
                                        -0.0653 -0.0573  0.0120 -0.0325  0.0078
                                         0.0633 -0.0418 -0.1854  0.0105  0.0026
                                         0.0090 -0.0131 -0.0013  0.0052  0.0503
                                         0.1023
  80. (0.00017) RY ( 4) O  1            s(  7.65%)p 2.46( 18.82%)d 9.42( 72.07%)
                                                  f 0.19(  1.46%)
                                         0.0000 -0.0057  0.2684 -0.0666 -0.0046
                                        -0.0113  0.0929  0.1218  0.0092  0.4015
                                         0.0214 -0.0016 -0.0352  0.0397 -0.2651
                                         0.0839  0.7905 -0.1071  0.0103  0.0043
                                         0.0457  0.0006 -0.0689 -0.0076 -0.0024
                                        -0.0200  0.0055  0.0193 -0.1107 -0.0342
                                        -0.0195
  81. (0.00009) RY ( 5) O  1            s( 10.65%)p 2.72( 28.96%)d 5.52( 58.79%)
                                                  f 0.15(  1.60%)
  82. (0.00007) RY ( 6) O  1            s(  5.99%)p 8.54( 51.19%)d 7.08( 42.46%)
                                                  f 0.06(  0.35%)
  83. (0.00005) RY ( 7) O  1            s(  5.33%)p 3.04( 16.22%)d14.01( 74.63%)
                                                  f 0.72(  3.82%)
  84. (0.00001) RY ( 8) O  1            s( 27.89%)p 1.05( 29.36%)d 1.48( 41.20%)
                                                  f 0.06(  1.55%)
  85. (0.00001) RY ( 9) O  1            s( 10.79%)p 4.42( 47.74%)d 3.20( 34.54%)
                                                  f 0.64(  6.93%)
  86. (0.00000) RY (10) O  1            s(  7.51%)p 0.45(  3.34%)d 1.62( 12.16%)
                                                  f10.25( 76.98%)
  87. (0.00000) RY (11) O  1            s( 44.50%)p 0.17(  7.41%)d 0.70( 30.99%)
                                                  f 0.38( 17.11%)
  88. (0.00000) RY (12) O  1            s(  1.76%)p12.64( 22.20%)d14.43( 25.34%)
                                                  f28.87( 50.70%)
  89. (0.00000) RY (13) O  1            s(  4.49%)p 0.59(  2.66%)d10.27( 46.16%)
                                                  f10.39( 46.69%)
  90. (0.00000) RY (14) O  1            s( 10.29%)p 1.71( 17.60%)d 3.50( 35.98%)
                                                  f 3.51( 36.12%)
  91. (0.00000) RY (15) O  1            s(  1.14%)p 5.73(  6.56%)d24.87( 28.45%)
                                                  f55.80( 63.84%)
  92. (0.00000) RY (16) O  1            s(  0.41%)p99.99( 45.37%)d81.17( 33.68%)
                                                  f49.50( 20.54%)
  93. (0.00000) RY (17) O  1            s( 36.63%)p 0.21(  7.69%)d 1.11( 40.71%)
                                                  f 0.41( 14.98%)
  94. (0.00000) RY (18) O  1            s(  1.00%)p 9.70(  9.74%)d44.14( 44.32%)
                                                  f44.75( 44.93%)
  95. (0.00000) RY (19) O  1            s(  2.71%)p21.40( 58.09%)d13.46( 36.54%)
                                                  f 0.98(  2.66%)
  96. (0.00000) RY (20) O  1            s(  0.00%)p 1.00(  0.94%)d36.09( 34.09%)
                                                  f68.78( 64.96%)
  97. (0.00000) RY (21) O  1            s(  0.61%)p 0.09(  0.06%)d 9.40(  5.77%)
                                                  f99.99( 93.56%)
  98. (0.00000) RY (22) O  1            s(  0.12%)p99.99( 13.81%)d99.99( 30.59%)
                                                  f99.99( 55.49%)
  99. (0.00000) RY (23) O  1            s(  0.56%)p 7.87(  4.38%)d99.99( 72.35%)
                                                  f40.83( 22.72%)
 100. (0.00000) RY (24) O  1            s( 27.44%)p 0.04(  1.06%)d 2.24( 61.54%)
                                                  f 0.36(  9.96%)
 101. (0.00000) RY (25) O  1            s( 17.46%)p 0.12(  2.06%)d 2.89( 50.43%)
                                                  f 1.72( 30.05%)
 102. (0.00000) RY (26) O  1            s(  2.61%)p 1.61(  4.21%)d23.55( 61.57%)
                                                  f12.09( 31.61%)
 103. (0.01509) RY ( 1) C  2            s( 15.08%)p 5.58( 84.19%)d 0.04(  0.55%)
                                                  f 0.01(  0.18%)
                                         0.0000  0.0290  0.3839  0.0509  0.0000
                                         0.0018  0.0315  0.0190  0.0594  0.9139
                                         0.0418 -0.0032 -0.0002 -0.0027  0.0202
                                         0.0043 -0.0001 -0.0022  0.0053  0.0036
                                        -0.0560  0.0357 -0.0146  0.0197 -0.0020
                                        -0.0035  0.0317 -0.0013 -0.0003  0.0033
                                         0.0270
 104. (0.00662) RY ( 2) C  2            s(  0.41%)p99.99( 90.98%)d20.55(  8.38%)
                                                  f 0.58(  0.23%)
                                         0.0000  0.0008  0.0584 -0.0258  0.0001
                                         0.0132  0.9507  0.0045 -0.0103 -0.0584
                                         0.0185 -0.0068 -0.0420 -0.0086  0.2003
                                         0.0933 -0.0876  0.0407  0.1428 -0.0430
                                         0.0023 -0.0572  0.0056 -0.0068  0.0012
                                        -0.0312  0.0026  0.0061  0.0011  0.0173
                                        -0.0321
 105. (0.00437) RY ( 3) C  2            s(  0.05%)p99.99( 14.28%)d99.99( 85.26%)
                                                  f 7.52(  0.41%)
                                         0.0000  0.0006  0.0111  0.0205 -0.0009
                                         0.0002 -0.1303 -0.0079  0.0001 -0.0021
                                        -0.0236 -0.0383 -0.3514  0.0160 -0.0578
                                        -0.0124  0.1184 -0.1049  0.8746 -0.2396
                                         0.0136 -0.0187 -0.0319  0.0106 -0.0215
                                         0.0019 -0.0061  0.0519  0.0276  0.0105
                                        -0.0048
 106. (0.00228) RY ( 4) C  2            s(  2.09%)p19.32( 40.33%)d27.43( 57.27%)
                                                  f 0.15(  0.32%)
                                         0.0000 -0.0018  0.1228 -0.0749 -0.0140
                                        -0.0068 -0.0319 -0.1886  0.0048 -0.0351
                                        -0.0276 -0.0287  0.5741 -0.1852 -0.2867
                                        -0.0474 -0.6087  0.1661  0.2959 -0.0418
                                         0.0130  0.0060  0.0058 -0.0230 -0.0201
                                         0.0068  0.0043  0.0284 -0.0343  0.0211
                                        -0.0168
 107. (0.00159) RY ( 5) C  2            s(  3.38%)p 4.08( 13.79%)d23.46( 79.33%)
                                                  f 1.03(  3.50%)
                                         0.0000 -0.0024  0.1311 -0.1277 -0.0175
                                         0.0235 -0.2466  0.2156  0.0065 -0.0606
                                        -0.0205 -0.0077  0.1533 -0.0492  0.7528
                                         0.4268 -0.1735  0.0422  0.1037 -0.0370
                                         0.0142 -0.0079  0.0069 -0.0072 -0.0062
                                        -0.0631  0.0304  0.0130 -0.0129 -0.1669
                                        -0.0429
 108. (0.00078) RY ( 6) C  2            s( 44.85%)p 0.46( 20.46%)d 0.74( 33.30%)
                                                  f 0.03(  1.39%)
                                         0.0000  0.0003  0.6691 -0.0227 -0.0174
                                         0.0110 -0.0211 -0.1935  0.0342 -0.2833
                                        -0.0098  0.0120 -0.2861  0.0556 -0.0653
                                         0.0410 -0.0786  0.0333 -0.1194 -0.0356
                                         0.2117  0.5089  0.0098 -0.0204  0.0169
                                         0.0617  0.0951  0.0104 -0.0009 -0.0187
                                        -0.0164
 109. (0.00049) RY ( 7) C  2            s(  0.51%)p66.84( 33.92%)d99.99( 63.70%)
                                                  f 3.70(  1.88%)
                                         0.0000 -0.0007  0.0240  0.0592 -0.0316
                                         0.0059 -0.0874 -0.0259 -0.0116  0.0006
                                         0.0440  0.0246 -0.5420  0.1854 -0.0008
                                        -0.0189 -0.5718  0.2266 -0.1641 -0.1062
                                        -0.1835 -0.4279  0.0301 -0.0491  0.0494
                                         0.0220 -0.0901  0.0523 -0.0559  0.0146
                                         0.0409
 110. (0.00026) RY ( 8) C  2            s( 37.41%)p 0.30( 11.21%)d 1.29( 48.41%)
                                                  f 0.08(  2.97%)
                                         0.0000 -0.0081  0.5465  0.2719 -0.0385
                                         0.0125 -0.0233 -0.0073 -0.0009 -0.2418
                                        -0.0079 -0.0088  0.1778 -0.1454  0.0136
                                        -0.1284  0.2986  0.0183  0.0323  0.0910
                                        -0.2628 -0.5299 -0.1052  0.0876 -0.0054
                                         0.0200 -0.0857 -0.0664  0.0628 -0.0849
                                         0.0799
 111. (0.00013) RY ( 9) C  2            s( 38.33%)p 0.42( 16.25%)d 0.78( 29.76%)
                                                  f 0.41( 15.66%)
                                         0.0000  0.0105 -0.0790  0.6140 -0.0039
                                        -0.0067  0.0211  0.3278 -0.0010 -0.0160
                                         0.2270 -0.0006  0.0351  0.0394  0.0284
                                        -0.0844 -0.1671  0.0583  0.0439  0.0325
                                         0.3889  0.1333 -0.1512  0.2520 -0.0089
                                         0.0222 -0.0868 -0.0043 -0.0477 -0.1249
                                         0.3614
 112. (0.00004) RY (10) C  2            s(  3.08%)p 3.73( 11.50%)d11.87( 36.57%)
                                                  f15.85( 48.84%)
 113. (0.00004) RY (11) C  2            s(  0.65%)p37.54( 24.45%)d97.69( 63.62%)
                                                  f17.31( 11.27%)
 114. (0.00002) RY (12) C  2            s(  3.77%)p14.44( 54.49%)d 1.84(  6.94%)
                                                  f 9.22( 34.79%)
 115. (0.00001) RY (13) C  2            s(  4.20%)p13.31( 55.97%)d 6.16( 25.90%)
                                                  f 3.31( 13.92%)
 116. (0.00001) RY (14) C  2            s(  4.97%)p 3.34( 16.57%)d 8.15( 40.49%)
                                                  f 7.64( 37.97%)
 117. (0.00000) RY (15) C  2            s(  0.46%)p 0.53(  0.24%)d63.66( 29.27%)
                                                  f99.99( 70.03%)
 118. (0.00000) RY (16) C  2            s(  4.85%)p 1.36(  6.61%)d15.60( 75.67%)
                                                  f 2.65( 12.87%)
 119. (0.00000) RY (17) C  2            s( 33.34%)p 0.03(  1.08%)d 1.18( 39.28%)
                                                  f 0.79( 26.29%)
 120. (0.00000) RY (18) C  2            s( 23.03%)p 0.09(  2.02%)d 0.67( 15.38%)
                                                  f 2.59( 59.57%)
 121. (0.00000) RY (19) C  2            s(  0.97%)p 1.01(  0.97%)d13.95( 13.50%)
                                                  f87.36( 84.55%)
 122. (0.00000) RY (20) C  2            s(  1.76%)p 0.22(  0.39%)d41.12( 72.27%)
                                                  f14.55( 25.58%)
 123. (0.00000) RY (21) C  2            s(  1.94%)p 3.08(  5.99%)d13.95( 27.08%)
                                                  f33.47( 64.99%)
 124. (0.00000) RY (22) C  2            s( 31.93%)p 0.40( 12.68%)d 1.06( 33.88%)
                                                  f 0.67( 21.51%)
 125. (0.00000) RY (23) C  2            s(  8.40%)p 7.20( 60.49%)d 2.38( 20.00%)
                                                  f 1.32( 11.10%)
 126. (0.00000) RY (24) C  2            s( 33.34%)p 0.18(  6.05%)d 0.92( 30.54%)
                                                  f 0.90( 30.07%)
 127. (0.00000) RY (25) C  2            s(  1.08%)p13.35( 14.39%)d49.97( 53.87%)
                                                  f28.44( 30.66%)
 128. (0.00000) RY (26) C  2            s(  0.00%)p 1.00(  1.34%)d 6.93(  9.31%)
                                                  f66.43( 89.34%)
 129. (0.00371) RY ( 1) N  3            s(  1.48%)p65.27( 96.87%)d 1.00(  1.48%)
                                                  f 0.11(  0.17%)
                                         0.0000  0.0068  0.1207 -0.0151 -0.0002
                                         0.0018 -0.0768  0.0185 -0.0016 -0.0356
                                         0.0135 -0.0323  0.9758 -0.0885 -0.0041
                                         0.0113 -0.0260 -0.0565 -0.0285 -0.0790
                                        -0.0424  0.0112 -0.0186 -0.0387 -0.0315
                                         0.0047 -0.0068  0.0172  0.0141  0.0037
                                        -0.0094
 130. (0.00268) RY ( 2) N  3            s(  2.43%)p35.87( 87.31%)d 4.07(  9.91%)
                                                  f 0.14(  0.34%)
                                         0.0000  0.0006  0.1535  0.0279  0.0021
                                         0.0059  0.1595 -0.0264 -0.0020 -0.9146
                                         0.0889  0.0108 -0.0500  0.0069 -0.0243
                                         0.0179  0.0504 -0.0339 -0.0190  0.0051
                                        -0.2617 -0.1555 -0.0369  0.0091  0.0037
                                         0.0050 -0.0005 -0.0167 -0.0115  0.0463
                                        -0.0285
 131. (0.00119) RY ( 3) N  3            s( 33.86%)p 1.44( 48.92%)d 0.45( 15.16%)
                                                  f 0.06(  2.05%)
                                         0.0000  0.0008  0.5816  0.0203 -0.0018
                                         0.0076  0.6001 -0.2070  0.0126  0.2826
                                        -0.0735 -0.0011 -0.0257  0.0125 -0.0769
                                        -0.0048  0.0279  0.0346 -0.0934  0.0135
                                        -0.3268  0.1589 -0.0502 -0.0150 -0.0045
                                        -0.0471  0.0062 -0.0076 -0.0121  0.0593
                                        -0.1204
 132. (0.00037) RY ( 4) N  3            s( 22.44%)p 1.02( 22.99%)d 2.34( 52.47%)
                                                  f 0.09(  2.10%)
                                         0.0000 -0.0089  0.4732  0.0198  0.0031
                                        -0.0347 -0.4634  0.0490 -0.0196  0.0070
                                         0.0309  0.0017 -0.0854  0.0533  0.0117
                                        -0.1567  0.4114 -0.0796  0.4898 -0.1825
                                        -0.0153  0.1612 -0.1559  0.0248  0.0060
                                        -0.0219 -0.0149 -0.1109 -0.0498  0.0447
                                        -0.0594
 133. (0.00016) RY ( 5) N  3            s(  6.93%)p 2.75( 19.07%)d10.14( 70.34%)
                                                  f 0.53(  3.66%)
                                         0.0000 -0.0012  0.2619  0.0260  0.0084
                                        -0.0067 -0.4051  0.0181  0.0119 -0.0018
                                         0.0532 -0.0033 -0.1075 -0.1083  0.0357
                                        -0.3546 -0.6788 -0.0851 -0.2296  0.0868
                                        -0.1918  0.0785 -0.0714 -0.0064  0.0171
                                         0.0338  0.0112  0.0704  0.0642  0.0959
                                        -0.1294
 134. (0.00015) RY ( 6) N  3            s(  3.36%)p 1.91(  6.42%)d26.53( 89.25%)
                                                  f 0.29(  0.97%)
                                         0.0000 -0.0057  0.1832 -0.0070  0.0017
                                        -0.0258 -0.2080  0.0873  0.0134  0.0152
                                        -0.0096 -0.0005  0.0178  0.1084  0.3002
                                        -0.0705  0.3175  0.6491 -0.4742  0.1130
                                        -0.0049 -0.1683  0.0100  0.0959  0.0149
                                         0.0200  0.0057  0.0795 -0.0162 -0.0161
                                        -0.0473
 135. (0.00010) RY ( 7) N  3            s(  5.54%)p 2.28( 12.64%)d13.63( 75.43%)
                                                  f 1.16(  6.40%)
                                         0.0000 -0.0076  0.2349  0.0083  0.0060
                                        -0.0223  0.0471  0.2790 -0.0018  0.0076
                                        -0.2079 -0.0002 -0.0415  0.0286  0.5704
                                         0.4233 -0.1211 -0.3298 -0.0114  0.0591
                                         0.1975 -0.2111 -0.1872 -0.0644 -0.0214
                                        -0.0579  0.0971 -0.0014  0.0073 -0.1091
                                        -0.1971
 136. (0.00005) RY ( 8) N  3            s(  6.93%)p 2.42( 16.80%)d 7.06( 48.89%)
                                                  f 3.95( 27.38%)
 137. (0.00003) RY ( 9) N  3            s(  8.45%)p 6.96( 58.81%)d 2.32( 19.63%)
                                                  f 1.55( 13.11%)
 138. (0.00001) RY (10) N  3            s(  2.57%)p 4.09( 10.51%)d31.08( 79.89%)
                                                  f 2.73(  7.02%)
 139. (0.00001) RY (11) N  3            s(  7.24%)p 3.47( 25.12%)d 8.73( 63.26%)
                                                  f 0.60(  4.37%)
 140. (0.00000) RY (12) N  3            s( 42.19%)p 0.25( 10.69%)d 0.75( 31.59%)
                                                  f 0.37( 15.52%)
 141. (0.00000) RY (13) N  3            s(  9.85%)p 5.54( 54.50%)d 2.00( 19.70%)
                                                  f 1.62( 15.96%)
 142. (0.00000) RY (14) N  3            s( 11.96%)p 0.59(  7.10%)d 2.30( 27.53%)
                                                  f 4.47( 53.41%)
 143. (0.00000) RY (15) N  3            s(  2.28%)p17.08( 39.01%)d14.16( 32.35%)
                                                  f11.53( 26.35%)
 144. (0.00000) RY (16) N  3            s(  9.57%)p 2.26( 21.65%)d 1.86( 17.77%)
                                                  f 5.33( 51.00%)
 145. (0.00000) RY (17) N  3            s( 12.12%)p 0.17(  2.03%)d 0.78(  9.51%)
                                                  f 6.30( 76.34%)
 146. (0.00000) RY (18) N  3            s(  0.11%)p 5.47(  0.62%)d15.55(  1.76%)
                                                  f99.99( 97.51%)
 147. (0.00000) RY (19) N  3            s(  6.48%)p 0.32(  2.06%)d 0.81(  5.28%)
                                                  f13.29( 86.18%)
 148. (0.00000) RY (20) N  3            s(  3.63%)p 0.52(  1.88%)d14.52( 52.70%)
                                                  f11.52( 41.79%)
 149. (0.00000) RY (21) N  3            s( 64.03%)p 0.16( 10.40%)d 0.23( 14.96%)
                                                  f 0.17( 10.61%)
 150. (0.00000) RY (22) N  3            s(  7.17%)p 1.97( 14.08%)d 4.64( 33.27%)
                                                  f 6.35( 45.49%)
 151. (0.00000) RY (23) N  3            s(  5.75%)p 1.52(  8.73%)d 6.04( 34.73%)
                                                  f 8.84( 50.79%)
 152. (0.00000) RY (24) N  3            s(  6.32%)p 0.51(  3.25%)d10.89( 68.83%)
                                                  f 3.42( 21.60%)
 153. (0.00000) RY (25) N  3            s( 15.76%)p 0.74( 11.69%)d 3.06( 48.17%)
                                                  f 1.55( 24.39%)
 154. (0.00000) RY (26) N  3            s(  1.68%)p 4.34(  7.32%)d44.87( 75.60%)
                                                  f 9.14( 15.39%)
 155. (0.00263) RY ( 1) C  4            s(  8.17%)p 8.49( 69.31%)d 2.73( 22.26%)
                                                  f 0.03(  0.25%)
                                         0.0000 -0.0048  0.2852 -0.0165  0.0052
                                         0.0065  0.6057 -0.0086  0.0150 -0.2241
                                         0.0339  0.0215 -0.4577  0.2540 -0.0190
                                        -0.0392 -0.3567 -0.0719 -0.2364  0.0358
                                         0.0546  0.1326 -0.0428 -0.0939 -0.0015
                                        -0.0170 -0.0041  0.0102  0.0096  0.0282
                                         0.0349
 156. (0.00165) RY ( 2) C  4            s(  1.52%)p52.83( 80.31%)d11.45( 17.40%)
                                                  f 0.50(  0.77%)
                                         0.0000 -0.0023  0.1152 -0.0438  0.0026
                                         0.0046  0.4583  0.1354  0.0190 -0.4664
                                        -0.0854 -0.0110  0.5765 -0.1305  0.0457
                                        -0.1135  0.1895  0.1637  0.2228 -0.0373
                                         0.0451  0.1711  0.0897  0.0772 -0.0011
                                         0.0161  0.0179  0.0274  0.0039  0.0739
                                        -0.0291
 157. (0.00108) RY ( 3) C  4            s( 21.16%)p 3.47( 73.41%)d 0.24(  5.05%)
                                                  f 0.02(  0.38%)
                                         0.0000 -0.0128  0.4594 -0.0183  0.0021
                                         0.0463  0.2511  0.1308  0.0195  0.6913
                                         0.1567  0.0081  0.3823  0.0522  0.0327
                                         0.0730 -0.0498  0.0198 -0.1059  0.0719
                                         0.0068 -0.0922 -0.1215  0.0389  0.0121
                                         0.0431 -0.0057 -0.0049  0.0146 -0.0391
                                        -0.0063
 158. (0.00033) RY ( 4) C  4            s(  3.64%)p 9.87( 35.91%)d16.24( 59.06%)
                                                  f 0.38(  1.40%)
                                         0.0000 -0.0018  0.1872  0.0362 -0.0052
                                         0.0169  0.2530  0.0780  0.0035  0.1618
                                        -0.0633 -0.0111 -0.4797 -0.1680  0.0135
                                         0.0739  0.6604  0.0174  0.2807 -0.0388
                                        -0.1471 -0.0856  0.1811  0.0797 -0.0050
                                        -0.0592 -0.0239 -0.0290  0.0515 -0.0785
                                        -0.0148
 159. (0.00013) RY ( 5) C  4            s( 26.36%)p 1.23( 32.51%)d 1.34( 35.36%)
                                                  f 0.22(  5.77%)
                                         0.0000 -0.0018  0.4692  0.2083 -0.0104
                                        -0.0009 -0.2829  0.1280  0.0027 -0.3268
                                         0.3489  0.0063 -0.0021  0.0093 -0.4583
                                         0.1839  0.0752 -0.1493  0.0906 -0.0709
                                         0.0823 -0.1488 -0.1770  0.0909  0.0022
                                         0.0857  0.0277 -0.0233  0.0381  0.1412
                                         0.1663
 160. (0.00008) RY ( 6) C  4            s(  4.84%)p 8.70( 42.13%)d 8.08( 39.13%)
                                                  f 2.87( 13.90%)
 161. (0.00006) RY ( 7) C  4            s(  2.05%)p13.23( 27.07%)d33.32( 68.17%)
                                                  f 1.33(  2.71%)
 162. (0.00005) RY ( 8) C  4            s(  4.34%)p 2.35( 10.20%)d18.97( 82.40%)
                                                  f 0.70(  3.05%)
 163. (0.00001) RY ( 9) C  4            s( 10.43%)p 0.84(  8.74%)d 6.97( 72.73%)
                                                  f 0.78(  8.10%)
 164. (0.00000) RY (10) C  4            s( 45.15%)p 0.47( 21.40%)d 0.59( 26.77%)
                                                  f 0.15(  6.67%)
 165. (0.00000) RY (11) C  4            s(  0.26%)p 7.37(  1.90%)d99.99( 61.40%)
                                                  f99.99( 36.44%)
 166. (0.00000) RY (12) C  4            s( 12.60%)p 0.43(  5.39%)d 5.42( 68.28%)
                                                  f 1.09( 13.74%)
 167. (0.00000) RY (13) C  4            s( 11.05%)p 0.93( 10.28%)d 4.33( 47.89%)
                                                  f 2.79( 30.78%)
 168. (0.00000) RY (14) C  4            s( 24.29%)p 0.49( 11.82%)d 0.47( 11.37%)
                                                  f 2.16( 52.53%)
 169. (0.00000) RY (15) C  4            s( 21.59%)p 2.26( 48.69%)d 1.14( 24.59%)
                                                  f 0.24(  5.13%)
 170. (0.00000) RY (16) C  4            s( 15.90%)p 1.04( 16.54%)d 2.08( 33.05%)
                                                  f 2.17( 34.51%)
 171. (0.00000) RY (17) C  4            s(  4.88%)p 7.96( 38.86%)d10.53( 51.38%)
                                                  f 1.00(  4.89%)
 172. (0.00000) RY (18) C  4            s( 40.52%)p 0.53( 21.34%)d 0.80( 32.35%)
                                                  f 0.14(  5.79%)
 173. (0.00000) RY (19) C  4            s(  1.09%)p 0.49(  0.53%)d 8.58(  9.32%)
                                                  f81.99( 89.07%)
 174. (0.00000) RY (20) C  4            s(  0.22%)p 2.28(  0.50%)d99.99( 54.63%)
                                                  f99.99( 44.64%)
 175. (0.00000) RY (21) C  4            s(  1.39%)p 0.34(  0.47%)d 5.66(  7.86%)
                                                  f65.03( 90.28%)
 176. (0.00000) RY (22) C  4            s(  4.16%)p 0.34(  1.41%)d 8.58( 35.67%)
                                                  f14.14( 58.76%)
 177. (0.00000) RY (23) C  4            s( 11.05%)p 0.11(  1.23%)d 1.72( 18.95%)
                                                  f 6.23( 68.77%)
 178. (0.00000) RY (24) C  4            s( 11.64%)p 0.21(  2.41%)d 3.82( 44.42%)
                                                  f 3.57( 41.53%)
 179. (0.00000) RY (25) C  4            s(  4.52%)p 0.74(  3.35%)d 8.24( 37.24%)
                                                  f12.14( 54.89%)
 180. (0.00000) RY (26) C  4            s(  7.08%)p 4.93( 34.89%)d 4.64( 32.83%)
                                                  f 3.56( 25.20%)
 181. (0.00565) RY ( 1) C  5            s(  0.27%)p99.99( 91.25%)d30.19(  8.17%)
                                                  f 1.12(  0.30%)
                                         0.0000 -0.0004  0.0515  0.0077 -0.0008
                                         0.0037  0.0036  0.0106 -0.0022  0.0176
                                        -0.0114  0.0568 -0.9505  0.0728  0.0135
                                         0.0073 -0.2749  0.0566  0.0361  0.0348
                                         0.0016  0.0142  0.0031  0.0014  0.0390
                                         0.0030 -0.0007 -0.0346  0.0172 -0.0008
                                         0.0008
 182. (0.00502) RY ( 2) C  5            s( 40.33%)p 1.16( 46.90%)d 0.31( 12.70%)
                                                  f 0.00(  0.07%)
                                         0.0000 -0.0216  0.6345 -0.0123  0.0062
                                         0.0538  0.5839  0.1543 -0.0232  0.2809
                                        -0.1398 -0.0039  0.0485 -0.0049  0.2408
                                         0.0846  0.0111 -0.0035  0.0000 -0.0092
                                         0.0911  0.2272 -0.0260  0.0321 -0.0023
                                         0.0164  0.0029  0.0004 -0.0002  0.0155
                                         0.0127
 183. (0.00294) RY ( 3) C  5            s(  6.29%)p14.35( 90.24%)d 0.29(  1.81%)
                                                  f 0.26(  1.66%)
                                         0.0000 -0.0213  0.2481 -0.0266  0.0126
                                         0.0372  0.0986  0.1820 -0.0206 -0.8843
                                        -0.2754  0.0007  0.0006  0.0029 -0.0276
                                        -0.0673 -0.0010 -0.0032  0.0029 -0.0024
                                        -0.0514 -0.0876 -0.0492  0.0056 -0.0022
                                         0.0534 -0.0104  0.0044  0.0007 -0.1161
                                        -0.0117
 184. (0.00081) RY ( 4) C  5            s( 38.50%)p 1.33( 51.02%)d 0.14(  5.55%)
                                                  f 0.13(  4.94%)
                                         0.0000  0.0120  0.6184 -0.0412 -0.0264
                                        -0.0047 -0.6585 -0.2442  0.0003  0.0889
                                        -0.0936  0.0045 -0.0098 -0.0107 -0.1066
                                         0.0270  0.1143 -0.0638 -0.0880  0.0881
                                        -0.0233  0.0749 -0.0613  0.0284 -0.0049
                                         0.0470  0.0292  0.0579 -0.0132 -0.0435
                                        -0.2023
 185. (0.00032) RY ( 5) C  5            s(  3.12%)p 3.99( 12.44%)d24.80( 77.36%)
                                                  f 2.27(  7.09%)
                                         0.0000  0.0009 -0.0327  0.1729 -0.0155
                                         0.0085  0.1218  0.1300 -0.0009 -0.0464
                                         0.1886  0.0114 -0.2303 -0.0407 -0.1016
                                         0.0806  0.6962 -0.2521 -0.2862  0.3431
                                         0.0704 -0.0612  0.0111  0.0087  0.0057
                                        -0.0245  0.0183  0.2199 -0.1202  0.0671
                                         0.0508
 186. (0.00025) RY ( 6) C  5            s( 13.11%)p 2.04( 26.71%)d 4.15( 54.45%)
                                                  f 0.44(  5.72%)
                                         0.0000  0.0090  0.1619  0.3218 -0.0360
                                         0.0257  0.1928 -0.0528  0.0090 -0.0853
                                         0.4629 -0.0028  0.0596  0.0352 -0.4423
                                         0.3696 -0.1987 -0.0081  0.0417 -0.0711
                                        -0.3949 -0.0326 -0.0417  0.0847 -0.0131
                                         0.0215 -0.0118 -0.0281  0.0481  0.0556
                                        -0.2242
 187. (0.00018) RY ( 7) C  5            s(  1.21%)p 9.21( 11.15%)d62.95( 76.21%)
                                                  f 9.44( 11.43%)
                                         0.0000 -0.0017  0.0430  0.1008  0.0096
                                         0.0039 -0.0517  0.2564 -0.0041  0.0294
                                         0.1148 -0.0061  0.1001  0.1376 -0.0825
                                        -0.2537 -0.4670 -0.5039 -0.2983  0.1183
                                         0.3040 -0.0894 -0.0854  0.0911 -0.1373
                                        -0.0351  0.0420  0.1967  0.2187  0.0770
                                        -0.0010
 188. (0.00016) RY ( 8) C  5            s(  4.80%)p 3.23( 15.51%)d14.75( 70.88%)
                                                  f 1.83(  8.81%)
                                         0.0000 -0.0021  0.1141  0.1862 -0.0191
                                         0.0128 -0.0490  0.3180 -0.0019  0.0586
                                         0.1896  0.0025 -0.0131 -0.1088 -0.2578
                                        -0.4023  0.1403  0.3669  0.2471 -0.1240
                                         0.3769 -0.1405 -0.2368  0.1785  0.0880
                                        -0.0150  0.0633 -0.1811 -0.1184  0.0943
                                        -0.1427
 189. (0.00007) RY ( 9) C  5            s(  0.97%)p41.97( 40.59%)d52.10( 50.39%)
                                                  f 8.33(  8.06%)
 190. (0.00004) RY (10) C  5            s(  1.31%)p43.49( 56.97%)d20.39( 26.71%)
                                                  f11.46( 15.01%)
 191. (0.00003) RY (11) C  5            s(  2.40%)p 5.26( 12.62%)d27.91( 66.94%)
                                                  f 7.52( 18.03%)
 192. (0.00002) RY (12) C  5            s(  3.84%)p 3.77( 14.48%)d13.68( 52.51%)
                                                  f 7.60( 29.18%)
 193. (0.00001) RY (13) C  5            s(  0.42%)p 5.36(  2.25%)d99.99( 77.23%)
                                                  f47.97( 20.10%)
 194. (0.00001) RY (14) C  5            s( 44.78%)p 0.44( 19.65%)d 0.57( 25.44%)
                                                  f 0.23( 10.12%)
 195. (0.00000) RY (15) C  5            s( 35.56%)p 0.12(  4.29%)d 1.30( 46.24%)
                                                  f 0.39( 13.91%)
 196. (0.00000) RY (16) C  5            s(  4.89%)p 1.14(  5.59%)d10.68( 52.19%)
                                                  f 7.64( 37.33%)
 197. (0.00000) RY (17) C  5            s(  0.09%)p11.22(  1.00%)d99.99( 21.50%)
                                                  f99.99( 77.41%)
 198. (0.00000) RY (18) C  5            s(  0.21%)p72.84( 15.61%)d99.99( 45.59%)
                                                  f99.99( 38.58%)
 199. (0.00000) RY (19) C  5            s(  0.37%)p 1.64(  0.61%)d82.52( 30.76%)
                                                  f99.99( 68.26%)
 200. (0.00000) RY (20) C  5            s(  4.88%)p 2.20( 10.70%)d 4.41( 21.51%)
                                                  f12.90( 62.91%)
 201. (0.00000) RY (21) C  5            s(  6.66%)p 0.50(  3.32%)d 2.15( 14.31%)
                                                  f11.38( 75.72%)
 202. (0.00000) RY (22) C  5            s( 47.12%)p 0.00(  0.18%)d 0.80( 37.84%)
                                                  f 0.32( 14.86%)
 203. (0.00000) RY (23) C  5            s(  8.49%)p 0.89(  7.53%)d 0.89(  7.52%)
                                                  f 9.01( 76.46%)
 204. (0.00000) RY (24) C  5            s(  8.65%)p 2.98( 25.78%)d 4.44( 38.42%)
                                                  f 3.14( 27.15%)
 205. (0.00000) RY (25) C  5            s( 13.64%)p 2.42( 33.04%)d 2.70( 36.77%)
                                                  f 1.21( 16.54%)
 206. (0.00000) RY (26) C  5            s(  8.01%)p 0.14(  1.09%)d 5.08( 40.71%)
                                                  f 6.26( 50.19%)
 207. (0.00712) RY ( 1) N  6            s(  5.93%)p15.24( 90.42%)d 0.60(  3.55%)
                                                  f 0.02(  0.09%)
                                         0.0000  0.0097  0.2328 -0.0709 -0.0022
                                        -0.0164  0.0133  0.0103  0.0370 -0.9494
                                         0.0289  0.0005  0.0078  0.0021 -0.0401
                                         0.0485  0.0020 -0.0008  0.0007 -0.0002
                                        -0.0678  0.1435 -0.0793  0.0101 -0.0003
                                        -0.0005  0.0202  0.0000  0.0006  0.0010
                                        -0.0226
 208. (0.00193) RY ( 2) N  6            s(  0.33%)p99.99( 96.74%)d 8.58(  2.82%)
                                                  f 0.33(  0.11%)
                                         0.0000  0.0001  0.0568 -0.0077 -0.0026
                                         0.0221  0.9725 -0.1384  0.0093  0.0309
                                         0.0044  0.0002 -0.0314 -0.0019  0.0439
                                        -0.1381  0.0243  0.0150  0.0058  0.0022
                                         0.0035  0.0620 -0.0496  0.0066  0.0005
                                         0.0012  0.0054  0.0001 -0.0025  0.0313
                                         0.0088
 209. (0.00104) RY ( 3) N  6            s(  1.32%)p 5.39(  7.12%)d68.93( 91.02%)
                                                  f 0.41(  0.54%)
                                         0.0000 -0.0021  0.1148 -0.0040 -0.0001
                                         0.0007  0.0250 -0.0074  0.0041  0.0258
                                        -0.0082 -0.0162  0.2618  0.0311  0.0252
                                        -0.0219 -0.7857 -0.4983 -0.2074 -0.0171
                                        -0.0041 -0.0066  0.0100  0.0096 -0.0117
                                        -0.0013 -0.0042 -0.0101  0.0709  0.0089
                                         0.0022
 210. (0.00070) RY ( 4) N  6            s( 21.14%)p 3.30( 69.67%)d 0.42(  8.93%)
                                                  f 0.01(  0.26%)
                                         0.0000 -0.0086  0.4572 -0.0468  0.0051
                                        -0.0015 -0.0666  0.0028  0.0166  0.1007
                                        -0.0516 -0.0081 -0.8191 -0.0906  0.0829
                                        -0.0640 -0.2286 -0.0157  0.1358 -0.0701
                                         0.0117 -0.0136 -0.0471 -0.0018  0.0269
                                        -0.0038 -0.0091  0.0034 -0.0068  0.0401
                                        -0.0097
 211. (0.00067) RY ( 5) N  6            s( 64.78%)p 0.37( 24.14%)d 0.16( 10.61%)
                                                  f 0.01(  0.47%)
                                         0.0000 -0.0151  0.7984 -0.1006  0.0080
                                        -0.0022 -0.0684  0.0201  0.0284  0.1950
                                        -0.0918  0.0064  0.4323  0.0462  0.1287
                                        -0.1019  0.2374  0.0797 -0.0553  0.0446
                                         0.0348 -0.0306 -0.0960 -0.0070 -0.0129
                                        -0.0038 -0.0187 -0.0026 -0.0054  0.0621
                                        -0.0152
 212. (0.00017) RY ( 6) N  6            s(  1.54%)p 2.25(  3.47%)d55.46( 85.48%)
                                                  f 6.17(  9.51%)
                                         0.0000 -0.0144 -0.0005  0.1203 -0.0269
                                        -0.0048  0.0086  0.0894 -0.0295 -0.1559
                                         0.0374  0.0007  0.0012 -0.0038  0.1071
                                        -0.2379 -0.0068  0.0134  0.0100  0.0011
                                         0.8006 -0.3111  0.2206 -0.0019  0.0016
                                        -0.0149 -0.0754  0.0010 -0.0072 -0.0764
                                         0.2886
 213. (0.00011) RY ( 7) N  6            s(  2.44%)p 1.13(  2.75%)d36.85( 89.79%)
                                                  f 2.06(  5.03%)
                                         0.0000 -0.0076  0.1465 -0.0532  0.0051
                                        -0.0492  0.1052  0.0081  0.0022  0.0569
                                        -0.1026  0.0008 -0.0086  0.0079 -0.7551
                                         0.4552 -0.0176 -0.0020  0.0163 -0.0085
                                         0.2180 -0.2316 -0.1348  0.0221 -0.0016
                                         0.0059 -0.0121  0.0045  0.0001 -0.2035
                                        -0.0929
 214. (0.00008) RY ( 8) N  6            s(  1.45%)p17.65( 25.56%)d39.79( 57.62%)
                                                  f10.62( 15.38%)
 215. (0.00002) RY ( 9) N  6            s(  0.11%)p99.99( 32.05%)d99.99( 66.40%)
                                                  f13.42(  1.44%)
 216. (0.00002) RY (10) N  6            s(  5.61%)p 4.65( 26.08%)d11.61( 65.19%)
                                                  f 0.56(  3.12%)
 217. (0.00001) RY (11) N  6            s(  7.06%)p 1.36(  9.62%)d10.61( 74.92%)
                                                  f 1.19(  8.40%)
 218. (0.00001) RY (12) N  6            s(  6.09%)p 1.99( 12.11%)d12.20( 74.25%)
                                                  f 1.24(  7.55%)
 219. (0.00001) RY (13) N  6            s( 21.48%)p 2.40( 51.57%)d 1.07( 23.09%)
                                                  f 0.18(  3.87%)
 220. (0.00001) RY (14) N  6            s( 21.55%)p 1.60( 34.53%)d 1.20( 25.91%)
                                                  f 0.84( 18.01%)
 221. (0.00000) RY (15) N  6            s( 26.25%)p 0.79( 20.84%)d 1.62( 42.53%)
                                                  f 0.40( 10.38%)
 222. (0.00000) RY (16) N  6            s(  1.72%)p15.21( 26.21%)d 9.78( 16.86%)
                                                  f32.03( 55.21%)
 223. (0.00000) RY (17) N  6            s(  1.18%)p 1.04(  1.22%)d 1.85(  2.17%)
                                                  f81.04( 95.43%)
 224. (0.00000) RY (18) N  6            s(  0.81%)p 3.59(  2.92%)d60.51( 49.30%)
                                                  f57.64( 46.96%)
 225. (0.00000) RY (19) N  6            s( 11.31%)p 0.20(  2.22%)d 2.58( 29.21%)
                                                  f 5.06( 57.26%)
 226. (0.00000) RY (20) N  6            s( 39.54%)p 0.01(  0.40%)d 1.09( 43.09%)
                                                  f 0.43( 16.96%)
 227. (0.00000) RY (21) N  6            s(  1.34%)p 0.16(  0.22%)d 8.65( 11.63%)
                                                  f64.57( 86.81%)
 228. (0.00000) RY (22) N  6            s(  0.68%)p42.09( 28.77%)d45.90( 31.38%)
                                                  f57.29( 39.17%)
 229. (0.00000) RY (23) N  6            s( 32.97%)p 0.03(  0.88%)d 1.41( 46.46%)
                                                  f 0.60( 19.69%)
 230. (0.00000) RY (24) N  6            s(  0.55%)p 2.06(  1.13%)d 9.89(  5.39%)
                                                  f99.99( 92.94%)
 231. (0.00000) RY (25) N  6            s( 15.59%)p 0.67( 10.38%)d 1.55( 24.11%)
                                                  f 3.20( 49.92%)
 232. (0.00000) RY (26) N  6            s(  7.36%)p 2.75( 20.22%)d 2.31( 17.01%)
                                                  f 7.53( 55.41%)
 233. (0.00668) RY ( 1) C  7            s( 43.18%)p 1.09( 47.26%)d 0.22(  9.53%)
                                                  f 0.00(  0.04%)
                                         0.0000 -0.0144  0.6561  0.0339  0.0029
                                        -0.0388 -0.6644 -0.0459 -0.0429  0.0912
                                        -0.1274 -0.0004  0.0336 -0.0029 -0.1463
                                         0.0491 -0.0064 -0.0015 -0.0003 -0.0015
                                         0.1970  0.1796  0.0060  0.0184 -0.0006
                                        -0.0100 -0.0007  0.0000  0.0005 -0.0163
                                        -0.0038
 234. (0.00461) RY ( 2) C  7            s(  0.04%)p99.99( 97.28%)d68.86(  2.50%)
                                                  f 4.93(  0.18%)
                                         0.0000 -0.0003  0.0183 -0.0054 -0.0005
                                        -0.0003 -0.0259 -0.0070 -0.0012  0.0063
                                        -0.0046  0.0279 -0.9762  0.1357 -0.0030
                                         0.0011  0.1254 -0.0382  0.0794  0.0370
                                         0.0074  0.0085 -0.0025  0.0024  0.0389
                                         0.0010  0.0001 -0.0005 -0.0165 -0.0012
                                        -0.0003
 235. (0.00370) RY ( 3) C  7            s(  1.19%)p79.16( 93.93%)d 3.93(  4.66%)
                                                  f 0.19(  0.23%)
                                         0.0000 -0.0222  0.0751 -0.0751  0.0091
                                        -0.0228 -0.0460 -0.1462 -0.0130 -0.9081
                                        -0.3007  0.0004 -0.0018  0.0025 -0.0128
                                        -0.0645 -0.0001  0.0027  0.0005  0.0012
                                        -0.0195 -0.2016 -0.0350  0.0046  0.0014
                                        -0.0356  0.0060 -0.0007 -0.0004 -0.0018
                                         0.0308
 236. (0.00102) RY ( 4) C  7            s( 37.72%)p 1.39( 52.58%)d 0.17(  6.56%)
                                                  f 0.08(  3.14%)
                                         0.0000 -0.0010  0.6131 -0.0224  0.0269
                                         0.0093  0.6963  0.1000 -0.0159  0.0159
                                        -0.1742 -0.0002 -0.0048 -0.0015  0.0609
                                         0.1710  0.0016 -0.0028 -0.0004 -0.0034
                                         0.0846  0.1547 -0.0360  0.0150  0.0008
                                        -0.0399 -0.0355 -0.0028 -0.0030  0.1366
                                         0.0996
 237. (0.00050) RY ( 5) C  7            s(  0.00%)p 1.00(  2.57%)d36.24( 93.13%)
                                                  f 1.67(  4.30%)
                                         0.0000  0.0000  0.0030  0.0034  0.0009
                                         0.0003  0.0008  0.0040 -0.0001 -0.0015
                                         0.0012  0.0185 -0.1418 -0.0723  0.0000
                                         0.0022 -0.9539  0.0230 -0.1308  0.0548
                                        -0.0141 -0.0002  0.0233 -0.0006  0.0707
                                         0.0041 -0.0043 -0.0810  0.1771 -0.0003
                                         0.0043
 238. (0.00022) RY ( 6) C  7            s( 12.05%)p 1.53( 18.42%)d 4.97( 59.91%)
                                                  f 0.80(  9.63%)
                                         0.0000  0.0111  0.1989  0.2824  0.0330
                                        -0.0030  0.0471  0.4042  0.0035 -0.0878
                                         0.1037  0.0000 -0.0042 -0.0056  0.1240
                                        -0.7111  0.0088 -0.0056 -0.0005  0.0094
                                        -0.1863  0.1037  0.1249 -0.1297 -0.0024
                                         0.0694  0.0829  0.0066  0.0021 -0.2860
                                        -0.0524
 239. (0.00011) RY ( 7) C  7            s( 14.80%)p 3.34( 49.36%)d 2.22( 32.88%)
                                                  f 0.20(  2.96%)
                                         0.0000 -0.0027  0.1205  0.3653 -0.0008
                                        -0.0226 -0.0474 -0.2650 -0.0124 -0.2445
                                         0.6006  0.0005 -0.0012 -0.0013  0.2813
                                         0.1966  0.0076  0.0142 -0.0178  0.0185
                                        -0.3017  0.2969 -0.1030  0.1426  0.0026
                                        -0.0475 -0.0625 -0.0006 -0.0037  0.1528
                                         0.0045
 240. (0.00009) RY ( 8) C  7            s( 14.77%)p 0.13(  1.86%)d 4.99( 73.66%)
                                                  f 0.66(  9.71%)
 241. (0.00006) RY ( 9) C  7            s(  0.29%)p99.99( 54.04%)d91.80( 26.72%)
                                                  f65.13( 18.95%)
 242. (0.00005) RY (10) C  7            s(  0.17%)p31.03(  5.30%)d99.99( 84.02%)
                                                  f61.51( 10.51%)
 243. (0.00004) RY (11) C  7            s( 10.81%)p 0.95( 10.27%)d 6.57( 70.96%)
                                                  f 0.74(  7.96%)
 244. (0.00002) RY (12) C  7            s(  1.31%)p15.35( 20.09%)d24.09( 31.52%)
                                                  f35.98( 47.08%)
 245. (0.00001) RY (13) C  7            s( 47.51%)p 0.32( 15.12%)d 0.40( 19.06%)
                                                  f 0.39( 18.32%)
 246. (0.00001) RY (14) C  7            s(  2.27%)p 0.34(  0.78%)d35.52( 80.55%)
                                                  f 7.24( 16.41%)
 247. (0.00001) RY (15) C  7            s(  6.36%)p 2.09( 13.27%)d10.34( 65.72%)
                                                  f 2.31( 14.66%)
 248. (0.00000) RY (16) C  7            s(  5.95%)p 1.57(  9.34%)d 6.96( 41.37%)
                                                  f 7.29( 43.34%)
 249. (0.00000) RY (17) C  7            s(  0.00%)p 1.00(  2.04%)d 6.52( 13.28%)
                                                  f41.55( 84.68%)
 250. (0.00000) RY (18) C  7            s(  0.01%)p99.99( 15.15%)d99.99( 80.92%)
                                                  f99.99(  3.91%)
 251. (0.00000) RY (19) C  7            s( 11.48%)p 0.19(  2.14%)d 0.61(  7.04%)
                                                  f 6.91( 79.34%)
 252. (0.00000) RY (20) C  7            s( 57.73%)p 0.01(  0.42%)d 0.54( 31.35%)
                                                  f 0.18( 10.50%)
 253. (0.00000) RY (21) C  7            s(  1.43%)p 1.04(  1.49%)d 9.63( 13.79%)
                                                  f58.14( 83.29%)
 254. (0.00000) RY (22) C  7            s(  0.58%)p93.36( 54.44%)d25.10( 14.64%)
                                                  f52.04( 30.34%)
 255. (0.00000) RY (23) C  7            s( 27.26%)p 0.09(  2.42%)d 1.88( 51.24%)
                                                  f 0.70( 19.08%)
 256. (0.00000) RY (24) C  7            s(  2.09%)p 2.52(  5.28%)d23.52( 49.24%)
                                                  f20.73( 43.39%)
 257. (0.00000) RY (25) C  7            s(  0.93%)p26.51( 24.69%)d25.76( 23.99%)
                                                  f54.11( 50.39%)
 258. (0.00000) RY (26) C  7            s(  0.00%)p 1.00(  0.97%)d11.82( 11.51%)
                                                  f89.91( 87.52%)
 259. (0.00719) RY ( 1) C  8            s(  1.94%)p48.37( 93.62%)d 2.23(  4.32%)
                                                  f 0.07(  0.13%)
                                         0.0000  0.0096  0.1375 -0.0159 -0.0104
                                        -0.0092  0.9614  0.0085  0.0064 -0.1060
                                         0.0168  0.0001 -0.0153 -0.0001 -0.0121
                                        -0.1897 -0.0015 -0.0010  0.0005  0.0028
                                         0.0153  0.0812 -0.0103  0.0105  0.0010
                                        -0.0258 -0.0051 -0.0007 -0.0006  0.0081
                                         0.0229
 260. (0.00348) RY ( 2) C  8            s(  1.43%)p65.66( 93.74%)d 3.22(  4.60%)
                                                  f 0.17(  0.24%)
                                         0.0000  0.0046  0.1163 -0.0268 -0.0025
                                        -0.0041 -0.1312  0.0035 -0.0140 -0.9573
                                        -0.0588  0.0000  0.0002  0.0000  0.0291
                                         0.0445 -0.0022 -0.0022 -0.0003 -0.0011
                                         0.0464  0.1987 -0.0277  0.0272  0.0006
                                        -0.0135  0.0375 -0.0007  0.0006  0.0269
                                         0.0090
 261. (0.00176) RY ( 3) C  8            s(  0.01%)p 1.00( 71.87%)d 0.38( 26.98%)
                                                  f 0.02(  1.15%)
                                         0.0000  0.0000  0.0070  0.0029 -0.0002
                                         0.0000  0.0124 -0.0012  0.0000 -0.0011
                                         0.0019 -0.0012  0.8405 -0.1099 -0.0013
                                        -0.0008  0.4870 -0.0816 -0.1462  0.0663
                                         0.0068  0.0000 -0.0129  0.0025 -0.0427
                                        -0.0004 -0.0015 -0.0606  0.0773 -0.0014
                                         0.0016
 262. (0.00059) RY ( 4) C  8            s(  0.44%)p53.91( 23.48%)d99.99( 73.17%)
                                                  f 6.68(  2.91%)
                                         0.0000 -0.0001  0.0647  0.0132  0.0016
                                         0.0006 -0.0095 -0.0128  0.0002  0.0043
                                         0.0147  0.0178 -0.4628  0.1408 -0.0071
                                         0.0192  0.8275  0.1275 -0.0645 -0.1565
                                         0.0251 -0.0188 -0.0262  0.0012  0.0301
                                         0.0064 -0.0060 -0.0048  0.1672 -0.0066
                                         0.0100
 263. (0.00056) RY ( 5) C  8            s( 61.85%)p 0.12(  7.49%)d 0.46( 28.15%)
                                                  f 0.04(  2.52%)
                                         0.0000 -0.0019  0.7710  0.1536  0.0208
                                         0.0032 -0.0160 -0.1984  0.0021  0.0343
                                         0.1816 -0.0013  0.0320 -0.0075 -0.1004
                                         0.3396 -0.0715 -0.0028  0.0062  0.0061
                                         0.1899 -0.3251 -0.0682  0.0669 -0.0050
                                         0.0771 -0.0367  0.0040 -0.0164 -0.0806
                                         0.1054
 264. (0.00037) RY ( 6) C  8            s( 10.25%)p 1.36( 13.91%)d 6.52( 66.83%)
                                                  f 0.88(  9.02%)
                                         0.0000 -0.0033  0.2487 -0.2013  0.0088
                                         0.0015 -0.0312  0.0794  0.0081  0.1987
                                         0.3037 -0.0001  0.0008 -0.0015 -0.0268
                                         0.2655 -0.0028 -0.0135  0.0008 -0.0034
                                        -0.0629  0.7654  0.0253 -0.0803  0.0007
                                        -0.0171  0.2401 -0.0026  0.0062  0.1453
                                        -0.1051
 265. (0.00031) RY ( 7) C  8            s(  0.00%)p 1.00(  0.15%)d99.99( 98.20%)
                                                  f10.87(  1.65%)
                                         0.0000  0.0000  0.0005  0.0000 -0.0001
                                        -0.0001 -0.0012  0.0009  0.0000  0.0002
                                         0.0011 -0.0053 -0.0373  0.0099 -0.0102
                                        -0.0112 -0.1394 -0.2242 -0.7914 -0.5345
                                        -0.0030 -0.0031  0.0032  0.0049  0.0110
                                         0.0024  0.0015 -0.1132 -0.0595 -0.0029
                                        -0.0018
 266. (0.00023) RY ( 8) C  8            s( 18.96%)p 0.62( 11.80%)d 1.68( 31.94%)
                                                  f 1.97( 37.30%)
                                         0.0000 -0.0054  0.3718 -0.2252  0.0248
                                        -0.0036 -0.1509 -0.1737 -0.0005  0.0658
                                        -0.2464  0.0000  0.0027  0.0019 -0.0553
                                        -0.5397 -0.0044 -0.0046  0.0034  0.0102
                                         0.0103  0.1148  0.0383 -0.1010  0.0063
                                        -0.1862 -0.0470  0.0034  0.0053 -0.3986
                                        -0.4209
 267. (0.00011) RY ( 9) C  8            s(  1.83%)p14.32( 26.16%)d33.49( 61.20%)
                                                  f 5.92( 10.81%)
                                         0.0000  0.0092  0.0811  0.0807 -0.0714
                                         0.0184 -0.0732  0.0956  0.0046 -0.0140
                                         0.4966 -0.0003  0.0002 -0.0019  0.7165
                                        -0.2911 -0.0017  0.0025 -0.0080  0.0062
                                        -0.1005  0.0060  0.0254  0.0544 -0.0003
                                        -0.0012 -0.0591  0.0059 -0.0074 -0.2385
                                         0.2184
 268. (0.00005) RY (10) C  8            s( 12.22%)p 1.00( 12.20%)d 2.13( 25.99%)
                                                  f 4.06( 49.59%)
 269. (0.00004) RY (11) C  8            s(  8.77%)p 7.69( 67.43%)d 2.05( 17.95%)
                                                  f 0.67(  5.85%)
 270. (0.00002) RY (12) C  8            s( 13.98%)p 3.38( 47.29%)d 2.28( 31.84%)
                                                  f 0.49(  6.89%)
 271. (0.00002) RY (13) C  8            s( 36.77%)p 0.18(  6.56%)d 0.91( 33.44%)
                                                  f 0.63( 23.23%)
 272. (0.00001) RY (14) C  8            s(  0.03%)p99.99(  6.81%)d99.99( 26.54%)
                                                  f99.99( 66.62%)
 273. (0.00001) RY (15) C  8            s(  0.76%)p 3.83(  2.89%)d99.99( 83.80%)
                                                  f16.58( 12.55%)
 274. (0.00000) RY (16) C  8            s(  0.00%)p 1.00(  0.14%)d24.24(  3.49%)
                                                  f99.99( 96.36%)
 275. (0.00000) RY (17) C  8            s(  0.12%)p12.94(  1.57%)d99.99( 69.37%)
                                                  f99.99( 28.94%)
 276. (0.00000) RY (18) C  8            s( 26.30%)p 0.01(  0.34%)d 2.66( 69.97%)
                                                  f 0.13(  3.39%)
 277. (0.00000) RY (19) C  8            s( 39.38%)p 0.00(  0.09%)d 0.47( 18.32%)
                                                  f 1.07( 42.22%)
 278. (0.00000) RY (20) C  8            s(  0.01%)p99.99( 20.30%)d99.99( 75.91%)
                                                  f99.99(  3.78%)
 279. (0.00000) RY (21) C  8            s( 30.18%)p 0.02(  0.63%)d 0.57( 17.10%)
                                                  f 1.73( 52.09%)
 280. (0.00000) RY (22) C  8            s(  0.14%)p99.99( 74.71%)d99.99( 23.39%)
                                                  f12.81(  1.76%)
 281. (0.00000) RY (23) C  8            s(  1.52%)p 7.88( 12.00%)d17.20( 26.19%)
                                                  f39.60( 60.28%)
 282. (0.00000) RY (24) C  8            s(  5.00%)p 0.14(  0.71%)d 5.40( 26.98%)
                                                  f13.47( 67.32%)
 283. (0.00000) RY (25) C  8            s( 28.25%)p 0.14(  4.07%)d 1.82( 51.53%)
                                                  f 0.57( 16.15%)
 284. (0.00000) RY (26) C  8            s(  0.00%)p 1.00(  0.31%)d 8.53(  2.61%)
                                                  f99.99( 97.08%)
 285. (0.00485) RY ( 1) C  9            s(  1.14%)p80.06( 91.50%)d 6.18(  7.06%)
                                                  f 0.25(  0.29%)
                                         0.0000  0.0030  0.1068 -0.0033 -0.0037
                                        -0.0017  0.1731  0.0186  0.0165 -0.9386
                                        -0.0583  0.0001 -0.0035 -0.0003 -0.0092
                                        -0.0714 -0.0004  0.0036  0.0000  0.0013
                                         0.0030 -0.2551 -0.0186 -0.0026 -0.0002
                                         0.0068  0.0464  0.0005  0.0014 -0.0176
                                        -0.0200
 286. (0.00155) RY ( 2) C  9            s(  0.00%)p 1.00( 96.31%)d 0.03(  2.72%)
                                                  f 0.01(  0.96%)
                                         0.0000  0.0000  0.0026  0.0021  0.0004
                                         0.0002 -0.0190  0.0028 -0.0001  0.0003
                                         0.0000  0.0204 -0.9628  0.1878  0.0015
                                        -0.0001  0.0829 -0.0329  0.1383  0.0129
                                         0.0018  0.0002 -0.0020  0.0008  0.0551
                                         0.0031  0.0016 -0.0448 -0.0677 -0.0013
                                        -0.0013
 287. (0.00145) RY ( 3) C  9            s(  0.44%)p99.99( 96.24%)d 3.20(  1.40%)
                                                  f 4.41(  1.92%)
                                         0.0000 -0.0069  0.0097  0.0649 -0.0020
                                         0.0382  0.9423  0.2027  0.0033  0.1710
                                         0.0480 -0.0005 -0.0182 -0.0021 -0.0062
                                         0.1125  0.0005  0.0008  0.0009 -0.0017
                                        -0.0198 -0.0231 -0.0176  0.0072  0.0001
                                         0.0024  0.0071 -0.0026 -0.0008  0.1355
                                         0.0282
 288. (0.00058) RY ( 4) C  9            s( 75.39%)p 0.01(  0.55%)d 0.30( 22.57%)
                                                  f 0.02(  1.49%)
                                         0.0000 -0.0053  0.8407  0.2169  0.0058
                                         0.0093  0.0048 -0.0122 -0.0080  0.0095
                                         0.0712 -0.0001  0.0023 -0.0005  0.0201
                                        -0.1273  0.0040 -0.0046 -0.0040  0.0039
                                        -0.2936  0.3373 -0.0898  0.0310 -0.0010
                                         0.0275 -0.0530  0.0037 -0.0012 -0.1039
                                        -0.0227
 289. (0.00031) RY ( 5) C  9            s(  0.00%)p 1.00(  0.24%)d99.99( 95.17%)
                                                  f18.91(  4.58%)
                                         0.0000  0.0000  0.0007  0.0045  0.0005
                                         0.0000 -0.0032 -0.0075  0.0001 -0.0029
                                         0.0009 -0.0028  0.0366 -0.0316 -0.0135
                                         0.0264  0.8091  0.4968 -0.1292  0.1786
                                         0.0112  0.0078 -0.0230 -0.0115  0.0043
                                        -0.0071  0.0029  0.1282 -0.1704  0.0163
                                        -0.0004
 290. (0.00030) RY ( 6) C  9            s(  1.43%)p 5.32(  7.62%)d48.94( 70.08%)
                                                  f14.58( 20.87%)
                                         0.0000 -0.0013  0.0923  0.0761 -0.0022
                                         0.0013 -0.0972 -0.2393  0.0013 -0.0936
                                         0.0261  0.0002  0.0000  0.0042 -0.3346
                                         0.7536 -0.0265 -0.0188  0.0025 -0.0132
                                        -0.0940  0.0497 -0.0802  0.0433  0.0049
                                        -0.1295 -0.0437 -0.0131  0.0022  0.4263
                                         0.0900
 291. (0.00024) RY ( 7) C  9            s(  0.00%)p 1.00(  1.11%)d85.50( 94.57%)
                                                  f 3.91(  4.32%)
                                         0.0000 -0.0001  0.0034 -0.0034 -0.0010
                                        -0.0002  0.0016 -0.0054  0.0000 -0.0015
                                         0.0004 -0.0149  0.0979  0.0351  0.0103
                                        -0.0007 -0.0066  0.4241  0.7634 -0.4274
                                        -0.0058  0.0093 -0.0008 -0.0104 -0.0577
                                         0.0010 -0.0023 -0.1944  0.0455 -0.0009
                                         0.0019
 292. (0.00010) RY ( 8) C  9            s( 16.13%)p 2.71( 43.75%)d 2.07( 33.44%)
                                                  f 0.41(  6.68%)
 293. (0.00005) RY ( 9) C  9            s( 19.22%)p 0.38(  7.33%)d 3.40( 65.30%)
                                                  f 0.42(  8.15%)
 294. (0.00003) RY (10) C  9            s(  7.12%)p 9.79( 69.72%)d 1.57( 11.21%)
                                                  f 1.68( 11.95%)
 295. (0.00001) RY (11) C  9            s( 19.40%)p 0.74( 14.37%)d 3.17( 61.56%)
                                                  f 0.24(  4.67%)
 296. (0.00001) RY (12) C  9            s(  9.46%)p 3.47( 32.83%)d 2.87( 27.20%)
                                                  f 3.23( 30.51%)
 297. (0.00001) RY (13) C  9            s(  7.92%)p 1.42( 11.24%)d 3.57( 28.25%)
                                                  f 6.64( 52.59%)
 298. (0.00000) RY (14) C  9            s(  2.67%)p 1.40(  3.75%)d14.00( 37.40%)
                                                  f21.02( 56.17%)
 299. (0.00000) RY (15) C  9            s( 27.90%)p 0.36( 10.09%)d 2.08( 57.97%)
                                                  f 0.14(  4.03%)
 300. (0.00000) RY (16) C  9            s(  0.00%)p 1.00(  0.51%)d 7.17(  3.63%)
                                                  f99.99( 95.86%)
 301. (0.00000) RY (17) C  9            s(  0.00%)p 1.00(  0.98%)d15.30( 15.02%)
                                                  f85.57( 84.00%)
 302. (0.00000) RY (18) C  9            s(  0.01%)p 1.00(  0.43%)d99.99( 83.26%)
                                                  f38.12( 16.30%)
 303. (0.00000) RY (19) C  9            s(  0.01%)p 1.00(  2.61%)d33.28( 86.90%)
                                                  f 4.01( 10.48%)
 304. (0.00000) RY (20) C  9            s(  3.67%)p 0.48(  1.78%)d 8.53( 31.32%)
                                                  f17.23( 63.24%)
 305. (0.00000) RY (21) C  9            s(  2.13%)p 7.84( 16.70%)d 6.95( 14.81%)
                                                  f31.17( 66.37%)
 306. (0.00000) RY (22) C  9            s( 52.97%)p 0.07(  3.87%)d 0.39( 20.78%)
                                                  f 0.42( 22.38%)
 307. (0.00000) RY (23) C  9            s( 23.42%)p 0.03(  0.76%)d 1.57( 36.68%)
                                                  f 1.67( 39.14%)
 308. (0.00000) RY (24) C  9            s(  4.09%)p 0.37(  1.51%)d 6.72( 27.47%)
                                                  f16.39( 66.94%)
 309. (0.00000) RY (25) C  9            s(  0.01%)p99.99( 80.50%)d99.99(  3.72%)
                                                  f99.99( 15.77%)
 310. (0.00000) RY (26) C  9            s( 25.60%)p 0.16(  4.08%)d 2.35( 60.17%)
                                                  f 0.40( 10.15%)
 311. (0.00470) RY ( 1) C 10            s(  1.50%)p60.48( 90.87%)d 4.92(  7.40%)
                                                  f 0.15(  0.23%)
                                         0.0000  0.0044  0.1210 -0.0189 -0.0005
                                         0.0176 -0.7501 -0.0308  0.0149 -0.5867
                                        -0.0122 -0.0002  0.0108  0.0004  0.0089
                                         0.2650 -0.0004 -0.0009 -0.0001 -0.0039
                                         0.0184  0.0573 -0.0042 -0.0074 -0.0012
                                         0.0342  0.0331  0.0010  0.0007 -0.0061
                                         0.0008
 312. (0.00147) RY ( 2) C 10            s(  2.56%)p37.65( 96.45%)d 0.24(  0.62%)
                                                  f 0.14(  0.37%)
                                         0.0000 -0.0023  0.1596 -0.0115 -0.0033
                                        -0.0293 -0.5819 -0.1291  0.0314  0.7657
                                         0.1454  0.0004  0.0086  0.0021  0.0302
                                        -0.0338 -0.0007 -0.0002  0.0004  0.0010
                                        -0.0543  0.0185 -0.0258  0.0136  0.0008
                                        -0.0202  0.0178 -0.0011  0.0000  0.0497
                                         0.0216
 313. (0.00114) RY ( 3) C 10            s(  0.00%)p 1.00( 85.89%)d 0.15( 12.88%)
                                                  f 0.01(  1.24%)
                                         0.0000  0.0000  0.0003  0.0000  0.0000
                                        -0.0003  0.0130 -0.0036  0.0000 -0.0002
                                         0.0004 -0.0161  0.8973 -0.2310 -0.0037
                                         0.0003 -0.1938  0.1238 -0.2723  0.0413
                                        -0.0029  0.0018  0.0047 -0.0032 -0.0353
                                        -0.0006  0.0024 -0.0362 -0.0989 -0.0007
                                        -0.0017
 314. (0.00050) RY ( 4) C 10            s( 81.31%)p 0.03(  2.61%)d 0.19( 15.47%)
                                                  f 0.01(  0.60%)
                                         0.0000 -0.0080  0.8829  0.1829 -0.0062
                                        -0.0069  0.1221  0.0207 -0.0145 -0.1019
                                        -0.0123  0.0000 -0.0022 -0.0007  0.2239
                                        -0.2338 -0.0165  0.0012  0.0060  0.0114
                                         0.0599 -0.1549 -0.1345  0.0620  0.0014
                                        -0.0312 -0.0545  0.0011 -0.0028  0.0378
                                         0.0254
 315. (0.00048) RY ( 5) C 10            s(  0.03%)p 2.00(  0.05%)d99.99( 97.55%)
                                                  f89.86(  2.38%)
                                         0.0000 -0.0001  0.0159  0.0031  0.0003
                                        -0.0001  0.0016 -0.0006 -0.0002 -0.0009
                                         0.0009  0.0056 -0.0073  0.0209 -0.0045
                                        -0.0104  0.6857  0.1570 -0.5283 -0.4482
                                         0.0116 -0.0012 -0.0202 -0.0037 -0.0180
                                         0.0020 -0.0022 -0.1403  0.0611 -0.0016
                                         0.0017
 316. (0.00033) RY ( 6) C 10            s(  0.49%)p 8.96(  4.38%)d99.99( 60.93%)
                                                  f70.07( 34.21%)
                                         0.0000 -0.0015  0.0649  0.0254  0.0051
                                         0.0003  0.0234 -0.0927 -0.0008 -0.0515
                                         0.1788  0.0000 -0.0004  0.0015  0.0823
                                        -0.2435  0.0010 -0.0106 -0.0013  0.0029
                                        -0.1009  0.7289 -0.0361  0.0160  0.0044
                                        -0.1171  0.1257  0.0065  0.0074 -0.5152
                                        -0.2170
 317. (0.00009) RY ( 7) C 10            s( 10.57%)p 2.08( 21.99%)d 5.22( 55.12%)
                                                  f 1.17( 12.32%)
 318. (0.00006) RY ( 8) C 10            s(  0.00%)p 1.00( 10.78%)d 8.21( 88.44%)
                                                  f 0.07(  0.78%)
 319. (0.00002) RY ( 9) C 10            s(  1.66%)p52.31( 86.58%)d 1.73(  2.87%)
                                                  f 5.38(  8.90%)
 320. (0.00001) RY (10) C 10            s(  5.54%)p 2.18( 12.05%)d13.12( 72.64%)
                                                  f 1.77(  9.77%)
 321. (0.00001) RY (11) C 10            s(  2.00%)p12.31( 24.61%)d35.10( 70.16%)
                                                  f 1.62(  3.23%)
 322. (0.00001) RY (12) C 10            s( 11.43%)p 0.85(  9.76%)d 5.62( 64.20%)
                                                  f 1.28( 14.62%)
 323. (0.00000) RY (13) C 10            s( 58.03%)p 0.01(  0.52%)d 0.41( 23.92%)
                                                  f 0.30( 17.53%)
 324. (0.00000) RY (14) C 10            s(  4.32%)p 5.31( 22.95%)d12.88( 55.64%)
                                                  f 3.96( 17.09%)
 325. (0.00000) RY (15) C 10            s( 20.58%)p 0.13(  2.69%)d 1.56( 32.18%)
                                                  f 2.16( 44.54%)
 326. (0.00000) RY (16) C 10            s(  9.44%)p 0.56(  5.30%)d 4.21( 39.74%)
                                                  f 4.82( 45.52%)
 327. (0.00000) RY (17) C 10            s(  0.00%)p 1.00(  0.28%)d89.30( 24.78%)
                                                  f99.99( 74.95%)
 328. (0.00000) RY (18) C 10            s(  0.00%)p 1.00(  0.21%)d99.99( 60.43%)
                                                  f99.99( 39.36%)
 329. (0.00000) RY (19) C 10            s(  0.07%)p63.85(  4.68%)d99.99( 46.22%)
                                                  f99.99( 49.03%)
 330. (0.00000) RY (20) C 10            s(  0.09%)p15.54(  1.36%)d99.99( 61.84%)
                                                  f99.99( 36.71%)
 331. (0.00000) RY (21) C 10            s( 14.03%)p 0.15(  2.04%)d 1.50( 20.99%)
                                                  f 4.49( 62.94%)
 332. (0.00000) RY (22) C 10            s(  0.06%)p99.99(  8.93%)d53.25(  3.17%)
                                                  f99.99( 87.85%)
 333. (0.00000) RY (23) C 10            s( 35.12%)p 0.05(  1.63%)d 0.17(  6.06%)
                                                  f 1.63( 57.19%)
 334. (0.00000) RY (24) C 10            s( 24.52%)p 0.19(  4.66%)d 0.71( 17.34%)
                                                  f 2.18( 53.48%)
 335. (0.00000) RY (25) C 10            s( 16.55%)p 0.71( 11.79%)d 3.29( 54.48%)
                                                  f 1.04( 17.18%)
 336. (0.00000) RY (26) C 10            s(  0.24%)p99.99( 87.33%)d19.51(  4.62%)
                                                  f33.00(  7.81%)
 337. (0.00465) RY ( 1) C 11            s(  2.16%)p41.49( 89.53%)d 3.75(  8.09%)
                                                  f 0.10(  0.22%)
                                         0.0000  0.0055  0.1463 -0.0116 -0.0037
                                         0.0168 -0.8672 -0.0808 -0.0067  0.3675
                                         0.0333 -0.0003  0.0139  0.0010  0.0052
                                        -0.2068 -0.0002 -0.0032  0.0000  0.0030
                                        -0.0018  0.1949  0.0012 -0.0124 -0.0016
                                         0.0425 -0.0181  0.0009 -0.0005 -0.0004
                                         0.0061
 338. (0.00270) RY ( 2) C 11            s(  0.00%)p 1.00( 89.67%)d 0.10(  9.37%)
                                                  f 0.01(  0.96%)
                                         0.0000  0.0000  0.0004  0.0001  0.0000
                                        -0.0004  0.0146 -0.0028  0.0000 -0.0004
                                        -0.0002 -0.0232  0.9233 -0.2084  0.0019
                                         0.0002 -0.2594  0.0980  0.1271 -0.0235
                                        -0.0033  0.0008  0.0068 -0.0025 -0.0468
                                        -0.0003 -0.0013 -0.0621  0.0598 -0.0011
                                         0.0011
 339. (0.00132) RY ( 3) C 11            s(  0.00%)p 1.00( 99.00%)d 0.00(  0.41%)
                                                  f 0.01(  0.58%)
                                         0.0000  0.0001  0.0058  0.0007  0.0002
                                        -0.0185 -0.3678 -0.1168 -0.0438 -0.8700
                                        -0.2862  0.0002  0.0053  0.0015 -0.0418
                                         0.0167  0.0003 -0.0003  0.0005 -0.0006
                                        -0.0418  0.0177 -0.0030  0.0027  0.0003
                                        -0.0104 -0.0240 -0.0015 -0.0010  0.0675
                                         0.0240
 340. (0.00045) RY ( 4) C 11            s( 84.14%)p 0.00(  0.42%)d 0.18( 14.89%)
                                                  f 0.01(  0.55%)
                                         0.0000 -0.0097  0.8995  0.1794 -0.0060
                                        -0.0134  0.0565 -0.0139  0.0061 -0.0196
                                         0.0146  0.0002 -0.0015  0.0003 -0.1546
                                         0.1391 -0.0066  0.0050  0.0022 -0.0020
                                         0.1709 -0.2085 -0.1634  0.0787  0.0020
                                        -0.0541  0.0340 -0.0018  0.0007  0.0369
                                         0.0062
 341. (0.00033) RY ( 5) C 11            s(  0.36%)p10.05(  3.65%)d99.99( 64.53%)
                                                  f86.52( 31.46%)
                                         0.0000 -0.0006  0.0598  0.0076 -0.0011
                                         0.0006  0.0209 -0.0700  0.0038  0.0516
                                        -0.1689  0.0000 -0.0003  0.0009 -0.1459
                                         0.5548  0.0013 -0.0078  0.0020 -0.0088
                                        -0.1171  0.5497 -0.0099  0.0045  0.0024
                                        -0.0707 -0.1474  0.0072  0.0005 -0.5008
                                        -0.1923
 342. (0.00029) RY ( 6) C 11            s(  0.00%)p 1.00(  0.02%)d99.99( 97.26%)
                                                  f99.99(  2.72%)
                                         0.0000  0.0000  0.0001  0.0000  0.0000
                                         0.0001 -0.0002 -0.0004  0.0000 -0.0001
                                        -0.0009  0.0067 -0.0132  0.0036  0.0100
                                         0.0089  0.3159  0.2389  0.6743  0.6006
                                         0.0052  0.0040 -0.0075 -0.0055  0.0014
                                         0.0026  0.0027 -0.1156 -0.1174 -0.0024
                                        -0.0021
 343. (0.00009) RY ( 7) C 11            s(  8.75%)p 2.69( 23.58%)d 6.19( 54.14%)
                                                  f 1.55( 13.54%)
 344. (0.00003) RY ( 8) C 11            s(  0.12%)p99.99( 94.46%)d24.37(  2.89%)
                                                  f21.26(  2.53%)
 345. (0.00001) RY ( 9) C 11            s(  4.38%)p13.35( 58.49%)d 7.78( 34.08%)
                                                  f 0.70(  3.05%)
 346. (0.00001) RY (10) C 11            s(  0.30%)p 4.62(  1.39%)d99.99( 88.82%)
                                                  f31.49(  9.49%)
 347. (0.00000) RY (11) C 11            s( 67.70%)p 0.04(  2.66%)d 0.43( 28.93%)
                                                  f 0.01(  0.70%)
 348. (0.00000) RY (12) C 11            s(  0.18%)p99.99( 51.14%)d99.99( 35.88%)
                                                  f69.17( 12.79%)
 349. (0.00000) RY (13) C 11            s( 21.73%)p 0.13(  2.78%)d 2.67( 57.97%)
                                                  f 0.81( 17.52%)
 350. (0.00000) RY (14) C 11            s(  9.65%)p 0.92(  8.83%)d 6.69( 64.54%)
                                                  f 1.76( 16.98%)
 351. (0.00000) RY (15) C 11            s(  4.93%)p 0.28(  1.37%)d12.24( 60.28%)
                                                  f 6.78( 33.42%)
 352. (0.00000) RY (16) C 11            s( 10.91%)p 0.94( 10.21%)d 4.02( 43.86%)
                                                  f 3.21( 35.02%)
 353. (0.00000) RY (17) C 11            s(  1.01%)p 1.15(  1.16%)d36.88( 37.10%)
                                                  f60.37( 60.74%)
 354. (0.00000) RY (18) C 11            s(  0.00%)p 1.00(  0.17%)d47.81(  8.25%)
                                                  f99.99( 91.58%)
 355. (0.00000) RY (19) C 11            s(  0.00%)p 1.00(  1.97%)d24.18( 47.53%)
                                                  f25.69( 50.51%)
 356. (0.00000) RY (20) C 11            s(  0.00%)p 1.00(  2.67%)d 7.35( 19.60%)
                                                  f29.14( 77.73%)
 357. (0.00000) RY (21) C 11            s(  0.00%)p 1.00(  0.13%)d99.99( 44.43%)
                                                  f99.99( 55.44%)
 358. (0.00000) RY (22) C 11            s(  0.00%)p 1.00( 12.26%)d 6.87( 84.21%)
                                                  f 0.29(  3.54%)
 359. (0.00000) RY (23) C 11            s(  6.30%)p 0.09(  0.60%)d 3.56( 22.45%)
                                                  f11.21( 70.65%)
 360. (0.00000) RY (24) C 11            s(  0.41%)p77.26( 31.67%)d99.99( 42.57%)
                                                  f61.82( 25.34%)
 361. (0.00000) RY (25) C 11            s(  1.79%)p 6.84( 12.22%)d11.14( 19.92%)
                                                  f36.97( 66.08%)
 362. (0.00000) RY (26) C 11            s( 75.31%)p 0.00(  0.31%)d 0.10(  7.68%)
                                                  f 0.22( 16.70%)
 363. (0.00469) RY ( 1) C 12            s(  1.69%)p53.77( 90.68%)d 4.38(  7.39%)
                                                  f 0.14(  0.24%)
                                         0.0000  0.0040  0.1285 -0.0183 -0.0002
                                         0.0000 -0.1215 -0.0150 -0.0228  0.9436
                                         0.0301  0.0000  0.0023  0.0002 -0.0157
                                        -0.0528 -0.0001  0.0038  0.0003  0.0009
                                        -0.0140 -0.2657 -0.0082 -0.0048 -0.0001
                                         0.0014 -0.0484 -0.0001 -0.0013  0.0038
                                         0.0094
 364. (0.00147) RY ( 2) C 12            s(  2.83%)p33.93( 96.02%)d 0.27(  0.77%)
                                                  f 0.14(  0.39%)
                                         0.0000 -0.0035  0.1676 -0.0134 -0.0025
                                        -0.0420 -0.9515 -0.1862 -0.0004 -0.1350
                                        -0.0008  0.0007  0.0140  0.0028  0.0587
                                        -0.0158 -0.0013 -0.0008 -0.0006 -0.0001
                                        -0.0245  0.0469 -0.0309  0.0151  0.0010
                                        -0.0265  0.0066  0.0004  0.0005 -0.0513
                                        -0.0222
 365. (0.00104) RY ( 3) C 12            s(  0.00%)p 1.00( 85.66%)d 0.15( 13.10%)
                                                  f 0.01(  1.25%)
                                         0.0000  0.0000  0.0002  0.0000  0.0000
                                        -0.0003  0.0134 -0.0034  0.0000 -0.0005
                                         0.0003 -0.0199  0.8989 -0.2192  0.0050
                                        -0.0018  0.0440  0.0575  0.3330 -0.1215
                                         0.0006  0.0010 -0.0008 -0.0016 -0.0340
                                        -0.0037 -0.0007  0.1016  0.0309  0.0019
                                         0.0005
 366. (0.00050) RY ( 4) C 12            s( 80.06%)p 0.04(  3.05%)d 0.20( 16.07%)
                                                  f 0.01(  0.82%)
                                         0.0000 -0.0071  0.8781  0.1715 -0.0094
                                         0.0072  0.1727  0.0089  0.0151 -0.0158
                                         0.0044  0.0001 -0.0033 -0.0001 -0.0487
                                         0.1764 -0.0082 -0.0060  0.0028 -0.0052
                                        -0.2232  0.2459 -0.1182  0.0535 -0.0003
                                         0.0197  0.0614  0.0022  0.0005 -0.0612
                                        -0.0178
 367. (0.00048) RY ( 5) C 12            s(  0.01%)p 1.00(  0.12%)d99.99( 97.86%)
                                                  f16.89(  2.01%)
                                         0.0000 -0.0001  0.0089  0.0022  0.0001
                                        -0.0002  0.0013 -0.0006  0.0002 -0.0004
                                         0.0014 -0.0145  0.0312 -0.0020 -0.0033
                                         0.0056  0.8532  0.4028 -0.1789  0.2357
                                         0.0107  0.0079 -0.0232 -0.0097 -0.0273
                                         0.0006 -0.0022 -0.0599  0.1256 -0.0021
                                         0.0018
 368. (0.00033) RY ( 6) C 12            s(  0.92%)p 4.77(  4.39%)d66.28( 61.04%)
                                                  f36.53( 33.65%)
                                         0.0000 -0.0019  0.0932  0.0223  0.0048
                                         0.0015  0.0575 -0.1896  0.0007  0.0098
                                        -0.0677  0.0000 -0.0009  0.0026  0.1110
                                        -0.7349  0.0010 -0.0028 -0.0018  0.0111
                                        -0.0939  0.2155 -0.0474  0.0209  0.0058
                                        -0.1591 -0.0073 -0.0132 -0.0038  0.5222
                                         0.1954
 369. (0.00009) RY ( 7) C 12            s(  8.85%)p 3.24( 28.70%)d 5.83( 51.60%)
                                                  f 1.23( 10.85%)
 370. (0.00005) RY ( 8) C 12            s(  0.00%)p 1.00( 11.54%)d 7.58( 87.49%)
                                                  f 0.08(  0.98%)
 371. (0.00002) RY ( 9) C 12            s(  2.46%)p29.35( 72.12%)d 7.59( 18.66%)
                                                  f 2.75(  6.77%)
 372. (0.00001) RY (10) C 12            s(  6.28%)p 2.08( 13.09%)d10.60( 66.63%)
                                                  f 2.23( 14.00%)
 373. (0.00001) RY (11) C 12            s(  3.07%)p16.02( 49.18%)d13.71( 42.11%)
                                                  f 1.84(  5.64%)
 374. (0.00001) RY (12) C 12            s( 21.90%)p 0.05(  1.05%)d 3.02( 66.12%)
                                                  f 0.50( 10.94%)
 375. (0.00000) RY (13) C 12            s( 16.76%)p 0.68( 11.37%)d 2.86( 48.00%)
                                                  f 1.42( 23.86%)
 376. (0.00000) RY (14) C 12            s( 17.06%)p 0.10(  1.71%)d 2.77( 47.26%)
                                                  f 1.99( 33.97%)
 377. (0.00000) RY (15) C 12            s(  3.59%)p 4.27( 15.35%)d12.39( 44.53%)
                                                  f10.16( 36.53%)
 378. (0.00000) RY (16) C 12            s(  0.00%)p 1.00(  0.03%)d99.99( 14.05%)
                                                  f99.99( 85.92%)
 379. (0.00000) RY (17) C 12            s(  0.00%)p 1.00(  2.23%)d21.54( 48.14%)
                                                  f22.20( 49.62%)
 380. (0.00000) RY (18) C 12            s(  0.00%)p 1.00(  0.05%)d99.99( 44.46%)
                                                  f99.99( 55.50%)
 381. (0.00000) RY (19) C 12            s(  0.00%)p 1.00(  0.69%)d61.29( 42.36%)
                                                  f82.39( 56.95%)
 382. (0.00000) RY (20) C 12            s(  2.43%)p 0.66(  1.61%)d 5.61( 13.66%)
                                                  f33.80( 82.30%)
 383. (0.00000) RY (21) C 12            s(  0.08%)p99.99( 15.79%)d99.99( 40.25%)
                                                  f99.99( 43.89%)
 384. (0.00000) RY (22) C 12            s( 47.92%)p 0.04(  1.83%)d 0.12(  5.87%)
                                                  f 0.93( 44.38%)
 385. (0.00000) RY (23) C 12            s( 38.46%)p 0.04(  1.35%)d 0.66( 25.41%)
                                                  f 0.90( 34.78%)
 386. (0.00000) RY (24) C 12            s(  6.08%)p 1.01(  6.15%)d 9.83( 59.75%)
                                                  f 4.61( 28.03%)
 387. (0.00000) RY (25) C 12            s(  0.01%)p99.99( 83.31%)d99.99( 11.05%)
                                                  f99.99(  5.63%)
 388. (0.00000) RY (26) C 12            s( 39.66%)p 0.08(  3.35%)d 0.66( 26.04%)
                                                  f 0.78( 30.95%)
 389. (0.00477) RY ( 1) C 13            s(  0.89%)p99.99( 91.39%)d 8.36(  7.42%)
                                                  f 0.34(  0.30%)
                                         0.0000  0.0035  0.0932 -0.0124 -0.0051
                                        -0.0132  0.8007  0.0445 -0.0095  0.5191
                                         0.0304  0.0002 -0.0119 -0.0007 -0.0211
                                         0.2560 -0.0004 -0.0013  0.0003 -0.0039
                                         0.0012  0.0877 -0.0228  0.0016  0.0011
                                        -0.0299 -0.0354 -0.0012 -0.0009  0.0296
                                         0.0008
 390. (0.00186) RY ( 2) C 13            s(  0.14%)p99.99( 97.64%)d 8.33(  1.20%)
                                                  f 7.03(  1.01%)
                                         0.0000  0.0073  0.0354  0.0061  0.0097
                                        -0.0258 -0.5551 -0.0324  0.0253  0.8069
                                         0.1222  0.0006  0.0015  0.0021 -0.0277
                                         0.0312  0.0004 -0.0024 -0.0002 -0.0003
                                         0.0157  0.0979  0.0197 -0.0061  0.0004
                                         0.0001 -0.0146 -0.0012 -0.0008  0.0932
                                         0.0351
 391. (0.00158) RY ( 3) C 13            s(  0.00%)p 1.00( 97.02%)d 0.02(  2.11%)
                                                  f 0.01(  0.87%)
                                         0.0000  0.0000  0.0021  0.0005 -0.0002
                                         0.0006 -0.0105  0.0039 -0.0002 -0.0058
                                        -0.0004  0.0199 -0.9661  0.1904 -0.0022
                                        -0.0003 -0.0091 -0.0600 -0.1314  0.0130
                                         0.0002 -0.0023  0.0005  0.0013  0.0528
                                         0.0004 -0.0009  0.0661  0.0393  0.0003
                                         0.0003
 392. (0.00064) RY ( 4) C 13            s( 81.56%)p 0.01(  0.71%)d 0.21( 16.75%)
                                                  f 0.01(  0.99%)
                                         0.0000 -0.0047  0.8764  0.2182  0.0004
                                         0.0142  0.0039 -0.0053 -0.0043 -0.0291
                                        -0.0770 -0.0001  0.0018 -0.0003  0.2706
                                        -0.2777  0.0007 -0.0027 -0.0028  0.0036
                                         0.0135  0.1179 -0.0536  0.0113 -0.0017
                                         0.0486  0.0012 -0.0002 -0.0012  0.0830
                                         0.0248
 393. (0.00032) RY ( 5) C 13            s(  3.51%)p 1.16(  4.09%)d19.78( 69.46%)
                                                  f 6.53( 22.94%)
                                         0.0000 -0.0005  0.1403  0.1231 -0.0170
                                         0.0028 -0.0117 -0.1157 -0.0047  0.0971
                                         0.1337  0.0002  0.0008  0.0011  0.0171
                                         0.0883  0.0036  0.0044  0.0049 -0.0026
                                         0.3956 -0.7227 -0.0769  0.0424  0.0038
                                        -0.0818  0.1018  0.0062  0.0040 -0.3845
                                        -0.2538
 394. (0.00027) RY ( 6) C 13            s(  0.00%)p 1.00(  0.05%)d99.99( 93.40%)
                                                  f99.99(  6.55%)
                                         0.0000 -0.0001  0.0019  0.0015  0.0001
                                        -0.0002  0.0001 -0.0025  0.0000  0.0016
                                        -0.0002 -0.0157 -0.0116  0.0088  0.0064
                                         0.0069 -0.8081 -0.0315  0.1884  0.4940
                                        -0.0084 -0.0071  0.0188  0.0024 -0.0257
                                         0.0025 -0.0033 -0.1537  0.2028 -0.0063
                                         0.0012
 395. (0.00026) RY ( 7) C 13            s(  0.00%)p 1.00(  0.56%)d99.99( 97.83%)
                                                  f 2.90(  1.61%)
                                         0.0000  0.0000  0.0019  0.0015 -0.0001
                                        -0.0001  0.0010 -0.0038  0.0000  0.0022
                                         0.0012 -0.0071  0.0554  0.0494 -0.0048
                                        -0.0052 -0.3045  0.6605 -0.6154 -0.2652
                                        -0.0011  0.0016  0.0048 -0.0160 -0.0424
                                        -0.0025 -0.0009  0.0212  0.1178 -0.0039
                                        -0.0011
 396. (0.00016) RY ( 8) C 13            s( 10.17%)p 2.90( 29.47%)d 5.38( 54.74%)
                                                  f 0.55(  5.61%)
                                         0.0000 -0.0002  0.3121  0.0601  0.0261
                                         0.0125 -0.1466  0.5064 -0.0034 -0.1277
                                        -0.0161 -0.0003  0.0038 -0.0069 -0.5738
                                         0.4358 -0.0025  0.0008  0.0061 -0.0064
                                         0.0449  0.1152  0.1042 -0.0445  0.0035
                                        -0.1105 -0.1145 -0.0001 -0.0012 -0.1752
                                        -0.0099
 397. (0.00006) RY ( 9) C 13            s(  4.20%)p15.22( 63.94%)d 4.86( 20.42%)
                                                  f 2.72( 11.44%)
 398. (0.00004) RY (10) C 13            s(  4.10%)p 9.30( 38.14%)d10.30( 42.23%)
                                                  f 3.79( 15.53%)
 399. (0.00002) RY (11) C 13            s( 44.06%)p 0.45( 19.84%)d 0.81( 35.48%)
                                                  f 0.01(  0.62%)
 400. (0.00001) RY (12) C 13            s( 11.49%)p 0.87(  9.99%)d 6.67( 76.61%)
                                                  f 0.17(  1.92%)
 401. (0.00001) RY (13) C 13            s( 13.36%)p 0.58(  7.73%)d 3.98( 53.12%)
                                                  f 1.93( 25.79%)
 402. (0.00001) RY (14) C 13            s(  1.10%)p 4.05(  4.47%)d36.71( 40.46%)
                                                  f48.97( 53.97%)
 403. (0.00000) RY (15) C 13            s( 19.58%)p 0.60( 11.80%)d 1.33( 25.98%)
                                                  f 2.18( 42.64%)
 404. (0.00000) RY (16) C 13            s(  0.44%)p99.99( 68.92%)d65.52( 28.59%)
                                                  f 4.70(  2.05%)
 405. (0.00000) RY (17) C 13            s(  0.00%)p 1.00(  1.07%)d 6.05(  6.46%)
                                                  f86.63( 92.47%)
 406. (0.00000) RY (18) C 13            s(  0.00%)p 1.00(  0.22%)d57.38( 12.38%)
                                                  f99.99( 87.40%)
 407. (0.00000) RY (19) C 13            s(  0.01%)p 1.00(  2.41%)d28.47( 68.68%)
                                                  f11.98( 28.90%)
 408. (0.00000) RY (20) C 13            s(  0.01%)p53.94(  0.73%)d99.99( 18.28%)
                                                  f99.99( 80.98%)
 409. (0.00000) RY (21) C 13            s( 11.52%)p 0.05(  0.62%)d 1.53( 17.58%)
                                                  f 6.10( 70.29%)
 410. (0.00000) RY (22) C 13            s(  0.01%)p 1.00( 27.86%)d 2.59( 72.09%)
                                                  f 0.00(  0.04%)
 411. (0.00000) RY (23) C 13            s( 17.19%)p 0.01(  0.12%)d 0.23(  4.03%)
                                                  f 4.58( 78.67%)
 412. (0.00000) RY (24) C 13            s(  5.53%)p 0.82(  4.56%)d 7.95( 43.98%)
                                                  f 8.30( 45.93%)
 413. (0.00000) RY (25) C 13            s( 35.85%)p 0.12(  4.33%)d 1.39( 49.75%)
                                                  f 0.28( 10.07%)
 414. (0.00000) RY (26) C 13            s( 35.41%)p 0.36( 12.75%)d 1.15( 40.60%)
                                                  f 0.32( 11.23%)
 415. (0.00068) RY ( 1) H 14            s( 40.24%)p 1.46( 58.83%)d 0.02(  0.94%)
                                        -0.0044  0.6128 -0.1636 -0.2027 -0.1779
                                        -0.0161  0.1333  0.4259  0.5622  0.0117
                                        -0.0269 -0.0882  0.0252  0.0098
 416. (0.00067) RY ( 2) H 14            s( 58.51%)p 0.68( 39.76%)d 0.03(  1.72%)
                                         0.0023  0.7507  0.1469  0.0075 -0.0502
                                        -0.0904 -0.0750 -0.2785 -0.5511  0.0384
                                        -0.0060  0.0447 -0.0996 -0.0618
 417. (0.00020) RY ( 3) H 14            s(  3.67%)p22.28( 81.76%)d 3.97( 14.57%)
                                         0.0010  0.0444  0.1863  0.8331 -0.2895
                                        -0.0698 -0.0624  0.1301  0.1185  0.3705
                                        -0.0669  0.0177  0.0325  0.0513
 418. (0.00018) RY ( 4) H 14            s( 82.35%)p 0.18( 15.01%)d 0.03(  2.64%)
                                         0.0025 -0.0509  0.9060 -0.2859 -0.1735
                                         0.0422 -0.0266 -0.0496  0.1826  0.0060
                                        -0.0293 -0.1264  0.0169  0.0960
 419. (0.00006) RY ( 5) H 14            s(  7.18%)p10.81( 77.61%)d 2.12( 15.21%)
 420. (0.00002) RY ( 6) H 14            s(  2.17%)p42.89( 93.18%)d 2.14(  4.65%)
 421. (0.00001) RY ( 7) H 14            s(  0.90%)p43.96( 39.62%)d65.98( 59.48%)
 422. (0.00001) RY ( 8) H 14            s(  0.50%)p99.99( 65.17%)d68.37( 34.32%)
 423. (0.00000) RY ( 9) H 14            s(  0.08%)p49.68(  4.13%)d99.99( 95.79%)
 424. (0.00000) RY (10) H 14            s(  0.48%)p99.99( 50.82%)d99.99( 48.70%)
 425. (0.00000) RY (11) H 14            s(  0.57%)p70.21( 39.98%)d99.99( 59.45%)
 426. (0.00000) RY (12) H 14            s(  1.31%)p11.39( 14.89%)d64.16( 83.81%)
 427. (0.00000) RY (13) H 14            s(  2.14%)p 8.94( 19.14%)d36.77( 78.72%)
 428. (0.00072) RY ( 1) H 15            s( 82.33%)p 0.19( 15.24%)d 0.03(  2.43%)
                                        -0.0015  0.9074  0.0012  0.1561  0.2084
                                         0.0737  0.2752 -0.0587  0.0008 -0.0859
                                        -0.1034  0.0457 -0.0477  0.0430
 429. (0.00009) RY ( 2) H 15            s(  1.67%)p34.99( 58.47%)d23.86( 39.86%)
 430. (0.00007) RY ( 3) H 15            s( 25.14%)p 2.38( 59.94%)d 0.59( 14.92%)
 431. (0.00004) RY ( 4) H 15            s( 18.65%)p 4.09( 76.31%)d 0.27(  5.04%)
 432. (0.00002) RY ( 5) H 15            s( 48.22%)p 0.66( 31.65%)d 0.42( 20.14%)
 433. (0.00001) RY ( 6) H 15            s(  1.55%)p60.95( 94.42%)d 2.60(  4.03%)
 434. (0.00001) RY ( 7) H 15            s(  3.75%)p21.22( 79.55%)d 4.46( 16.70%)
 435. (0.00000) RY ( 8) H 15            s(  6.98%)p 7.01( 48.96%)d 6.31( 44.06%)
 436. (0.00000) RY ( 9) H 15            s(  1.83%)p14.65( 26.87%)d38.87( 71.30%)
 437. (0.00000) RY (10) H 15            s(  0.75%)p31.22( 23.27%)d99.99( 75.98%)
 438. (0.00000) RY (11) H 15            s(  0.95%)p41.43( 39.32%)d62.93( 59.73%)
 439. (0.00000) RY (12) H 15            s(  4.86%)p 5.69( 27.65%)d13.89( 67.50%)
 440. (0.00000) RY (13) H 15            s(  3.38%)p 5.41( 18.31%)d23.13( 78.30%)
 441. (0.00147) RY ( 1) H 16            s( 87.90%)p 0.12( 10.38%)d 0.02(  1.72%)
                                         0.0024  0.9375 -0.0007  0.0835  0.2204
                                         0.0730  0.2023  0.0428 -0.0124 -0.0383
                                        -0.0120 -0.0395 -0.0444  0.1099
 442. (0.00008) RY ( 2) H 16            s(  0.02%)p99.99( 58.43%)d99.99( 41.55%)
 443. (0.00007) RY ( 3) H 16            s( 22.47%)p 2.82( 63.28%)d 0.63( 14.25%)
 444. (0.00002) RY ( 4) H 16            s( 16.95%)p 4.15( 70.33%)d 0.75( 12.73%)
 445. (0.00002) RY ( 5) H 16            s( 33.85%)p 1.38( 46.70%)d 0.57( 19.46%)
 446. (0.00001) RY ( 6) H 16            s(  5.60%)p13.67( 76.55%)d 3.19( 17.85%)
 447. (0.00000) RY ( 7) H 16            s(  3.11%)p27.12( 84.23%)d 4.08( 12.66%)
 448. (0.00000) RY ( 8) H 16            s(  8.59%)p 2.70( 23.19%)d 7.94( 68.22%)
 449. (0.00000) RY ( 9) H 16            s(  0.17%)p99.99( 40.18%)d99.99( 59.65%)
 450. (0.00000) RY (10) H 16            s(  7.81%)p 3.20( 24.97%)d 8.61( 67.23%)
 451. (0.00000) RY (11) H 16            s(  5.19%)p10.14( 52.61%)d 8.13( 42.20%)
 452. (0.00000) RY (12) H 16            s(  2.59%)p 9.67( 25.06%)d27.92( 72.35%)
 453. (0.00000) RY (13) H 16            s(  5.82%)p 4.13( 24.04%)d12.05( 70.14%)
 454. (0.00116) RY ( 1) H 17            s( 98.31%)p 0.01(  1.01%)d 0.01(  0.68%)
                                         0.0039  0.9915  0.0030 -0.0483 -0.0824
                                        -0.0069  0.0266  0.0041  0.0139 -0.0792
                                         0.0082 -0.0202 -0.0045  0.0062
 455. (0.00013) RY ( 2) H 17            s( 18.01%)p 4.27( 76.93%)d 0.28(  5.07%)
                                         0.0110 -0.0649  0.4192 -0.3877 -0.6795
                                        -0.2368 -0.1267  0.2410  0.1645  0.1706
                                         0.0268 -0.0096  0.1244  0.0726
 456. (0.00010) RY ( 3) H 17            s(  4.32%)p15.14( 65.36%)d 7.03( 30.32%)
 457. (0.00008) RY ( 4) H 17            s(  6.61%)p12.46( 82.43%)d 1.66( 10.95%)
 458. (0.00005) RY ( 5) H 17            s(  2.30%)p35.77( 82.17%)d 6.76( 15.54%)
 459. (0.00002) RY ( 6) H 17            s( 46.66%)p 0.77( 36.14%)d 0.37( 17.20%)
 460. (0.00001) RY ( 7) H 17            s(  0.77%)p99.57( 76.39%)d29.78( 22.84%)
 461. (0.00001) RY ( 8) H 17            s(  2.06%)p 3.03(  6.23%)d44.62( 91.71%)
 462. (0.00000) RY ( 9) H 17            s(  0.23%)p99.99( 23.42%)d99.99( 76.35%)
 463. (0.00000) RY (10) H 17            s(  0.29%)p99.99( 32.65%)d99.99( 67.06%)
 464. (0.00000) RY (11) H 17            s(  3.54%)p11.96( 42.32%)d15.30( 54.14%)
 465. (0.00000) RY (12) H 17            s(  7.41%)p 4.09( 30.25%)d 8.42( 62.34%)
 466. (0.00000) RY (13) H 17            s(  9.56%)p 4.67( 44.66%)d 4.79( 45.78%)
 467. (0.00305) RY ( 1) H 18            s( 96.92%)p 0.03(  2.57%)d 0.01(  0.51%)
                                         0.0082  0.9845  0.0004  0.1449 -0.0670
                                        -0.0062  0.0071  0.0105 -0.0007  0.0279
                                         0.0012 -0.0031 -0.0635  0.0159
 468. (0.00026) RY ( 2) H 18            s(  0.23%)p99.99( 92.73%)d30.04(  7.04%)
                                        -0.0005 -0.0021  0.0484 -0.0324  0.0488
                                        -0.0135  0.0059  0.9559 -0.0993 -0.0210
                                         0.0559 -0.2584  0.0077 -0.0015
 469. (0.00017) RY ( 3) H 18            s( 45.53%)p 1.13( 51.59%)d 0.06(  2.88%)
                                        -0.0029 -0.1117  0.6655  0.4106 -0.5728
                                        -0.1242  0.0610  0.0095 -0.0002  0.1345
                                         0.0044 -0.0042 -0.1011  0.0201
 470. (0.00011) RY ( 4) H 18            s( 44.28%)p 0.95( 42.25%)d 0.30( 13.47%)
                                         0.0022  0.0755  0.6611 -0.1522  0.5864
                                        -0.0594  0.2164 -0.0716  0.0039 -0.3260
                                        -0.0075  0.0223  0.1138  0.1224
 471. (0.00002) RY ( 5) H 18            s(  5.15%)p16.55( 85.23%)d 1.87(  9.62%)
 472. (0.00001) RY ( 6) H 18            s(  0.97%)p63.27( 61.44%)d38.72( 37.59%)
 473. (0.00001) RY ( 7) H 18            s(  0.98%)p61.58( 60.21%)d39.69( 38.81%)
 474. (0.00001) RY ( 8) H 18            s(  0.41%)p47.47( 19.36%)d99.99( 80.23%)
 475. (0.00000) RY ( 9) H 18            s(  0.26%)p99.99( 51.84%)d99.99( 47.90%)
 476. (0.00000) RY (10) H 18            s(  0.02%)p99.99( 24.31%)d99.99( 75.67%)
 477. (0.00000) RY (11) H 18            s(  2.06%)p 6.61( 13.63%)d40.90( 84.31%)
 478. (0.00000) RY (12) H 18            s(  0.03%)p99.99( 41.13%)d99.99( 58.83%)
 479. (0.00000) RY (13) H 18            s(  3.19%)p16.82( 53.67%)d13.52( 43.14%)
 480. (0.00363) RY ( 1) H 19            s( 98.08%)p 0.01(  1.46%)d 0.00(  0.46%)
                                         0.0101  0.9903 -0.0008 -0.0906  0.0622
                                        -0.0400  0.0304 -0.0002 -0.0004 -0.0493
                                         0.0010  0.0011 -0.0422  0.0192
 481. (0.00022) RY ( 2) H 19            s(  0.02%)p99.99( 93.25%)d99.99(  6.73%)
                                         0.0000 -0.0014  0.0134 -0.0123  0.0052
                                         0.0028 -0.0019 -0.9485  0.1806  0.0048
                                        -0.0529  0.2539 -0.0003  0.0016
 482. (0.00015) RY ( 3) H 19            s( 80.71%)p 0.23( 18.65%)d 0.01(  0.63%)
                                        -0.0009 -0.0520  0.8969 -0.1888  0.2682
                                        -0.1796  0.2156  0.0137 -0.0056 -0.0372
                                         0.0032 -0.0026 -0.0457  0.0534
 483. (0.00010) RY ( 4) H 19            s( 10.69%)p 7.45( 79.64%)d 0.90(  9.67%)
                                         0.0018  0.1036  0.3101  0.5864 -0.6645
                                         0.0129  0.1034 -0.0053  0.0094  0.2922
                                         0.0030 -0.0051 -0.0466  0.0953
 484. (0.00004) RY ( 5) H 19            s(  0.19%)p99.99( 83.77%)d85.38( 16.05%)
 485. (0.00001) RY ( 6) H 19            s(  0.01%)p99.99( 44.98%)d99.99( 55.01%)
 486. (0.00001) RY ( 7) H 19            s(  3.10%)p19.11( 59.29%)d12.12( 37.60%)
 487. (0.00000) RY ( 8) H 19            s(  0.30%)p99.99( 35.35%)d99.99( 64.35%)
 488. (0.00000) RY ( 9) H 19            s(  0.00%)p 1.00( 37.12%)d 1.69( 62.88%)
 489. (0.00000) RY (10) H 19            s(  0.00%)p 1.00( 24.86%)d 3.02( 75.14%)
 490. (0.00000) RY (11) H 19            s(  0.06%)p99.99( 53.46%)d99.99( 46.48%)
 491. (0.00000) RY (12) H 19            s(  4.32%)p 3.21( 13.84%)d18.95( 81.84%)
 492. (0.00000) RY (13) H 19            s(  2.55%)p21.31( 54.29%)d16.94( 43.16%)
 493. (0.00069) RY ( 1) H 20            s( 96.05%)p 0.03(  3.11%)d 0.01(  0.84%)
                                         0.0005  0.9799 -0.0135 -0.0255  0.0009
                                        -0.0649  0.1620 -0.0001  0.0004 -0.0684
                                         0.0014  0.0008 -0.0559  0.0249
 494. (0.00016) RY ( 2) H 20            s( 20.97%)p 3.15( 66.09%)d 0.62( 12.94%)
                                         0.0004  0.0799  0.4509  0.3751  0.6776
                                         0.0675 -0.2376 -0.0042 -0.0110  0.3467
                                         0.0002 -0.0044 -0.0820 -0.0496
 495. (0.00012) RY ( 3) H 20            s(  0.01%)p99.99( 89.02%)d99.99( 10.97%)
                                         0.0000  0.0013  0.0115  0.0049 -0.0166
                                        -0.0007 -0.0047  0.6804 -0.6534  0.0007
                                         0.0023  0.3311  0.0017 -0.0002
 496. (0.00012) RY ( 4) H 20            s( 60.22%)p 0.57( 34.34%)d 0.09(  5.44%)
                                         0.0019  0.0547  0.7741 -0.2745 -0.3801
                                         0.0164 -0.3508 -0.0065  0.0161 -0.2092
                                        -0.0027 -0.0020  0.0886 -0.0523
 497. (0.00003) RY ( 5) H 20            s(  0.29%)p99.99( 90.29%)d32.84(  9.42%)
 498. (0.00001) RY ( 6) H 20            s( 13.11%)p 3.04( 39.80%)d 3.59( 47.09%)
 499. (0.00001) RY ( 7) H 20            s(  0.00%)p 1.00( 79.70%)d 0.25( 20.30%)
 500. (0.00000) RY ( 8) H 20            s(  6.65%)p11.01( 73.20%)d 3.03( 20.15%)
 501. (0.00000) RY ( 9) H 20            s(  0.00%)p 1.00(  1.46%)d67.57( 98.54%)
 502. (0.00000) RY (10) H 20            s(  0.00%)p 1.00( 29.80%)d 2.36( 70.20%)
 503. (0.00000) RY (11) H 20            s(  1.37%)p31.34( 43.07%)d40.43( 55.56%)
 504. (0.00000) RY (12) H 20            s(  0.99%)p39.28( 38.70%)d61.23( 60.32%)
 505. (0.00000) RY (13) H 20            s(  0.39%)p29.54( 11.38%)d99.99( 88.23%)
 506. (0.00045) RY ( 1) H 21            s( 89.39%)p 0.10(  9.35%)d 0.01(  1.26%)
                                        -0.0019  0.9452 -0.0231 -0.1608 -0.2282
                                        -0.0745 -0.1002  0.0021  0.0034  0.1031
                                         0.0011 -0.0017  0.0080  0.0436
 507. (0.00013) RY ( 2) H 21            s(  0.54%)p99.99( 76.11%)d43.19( 23.35%)
                                        -0.0002  0.0735 -0.0031  0.4228  0.3247
                                        -0.5662 -0.3953 -0.0068 -0.0044 -0.1233
                                        -0.0074  0.0016  0.4671 -0.0062
 508. (0.00012) RY ( 3) H 21            s(  0.00%)p 1.00( 88.17%)d 0.13( 11.83%)
                                         0.0000  0.0002 -0.0001  0.0065 -0.0123
                                        -0.0007  0.0003  0.4241 -0.8377  0.0026
                                         0.2801  0.1993  0.0046 -0.0069
 509. (0.00010) RY ( 4) H 21            s( 86.16%)p 0.15( 13.23%)d 0.01(  0.61%)
 510. (0.00003) RY ( 5) H 21            s(  0.22%)p99.99( 96.59%)d14.70(  3.20%)
 511. (0.00001) RY ( 6) H 21            s( 17.99%)p 3.16( 56.75%)d 1.40( 25.26%)
 512. (0.00001) RY ( 7) H 21            s(  0.00%)p 1.00( 69.57%)d 0.44( 30.43%)
 513. (0.00000) RY ( 8) H 21            s(  0.00%)p 1.00( 12.19%)d 7.20( 87.81%)
 514. (0.00000) RY ( 9) H 21            s(  2.75%)p14.27( 39.24%)d21.09( 58.01%)
 515. (0.00000) RY (10) H 21            s(  1.53%)p13.52( 20.67%)d50.90( 77.80%)
 516. (0.00000) RY (11) H 21            s(  1.16%)p41.46( 48.14%)d43.67( 50.70%)
 517. (0.00000) RY (12) H 21            s(  0.31%)p99.99( 39.89%)d99.99( 59.80%)
 518. (0.00000) RY (13) H 21            s(  0.00%)p 1.00( 30.07%)d 2.33( 69.93%)
 519. (0.00040) RY ( 1) H 22            s( 88.88%)p 0.11(  9.98%)d 0.01(  1.15%)
                                        -0.0022  0.9422 -0.0306 -0.1354  0.2597
                                         0.0551  0.1045  0.0021  0.0032 -0.0687
                                         0.0004  0.0009  0.0646  0.0509
 520. (0.00017) RY ( 2) H 22            s(  0.00%)p 1.00( 90.23%)d 0.11(  9.77%)
                                         0.0000  0.0006  0.0016 -0.0062 -0.0127
                                         0.0011  0.0009 -0.4225  0.8506  0.0021
                                        -0.2898  0.1166 -0.0034  0.0076
 521. (0.00011) RY ( 3) H 22            s(  0.13%)p99.99( 71.80%)d99.99( 28.08%)
                                         0.0002  0.0128  0.0331  0.2597 -0.2278
                                         0.5988  0.4899 -0.0026 -0.0044  0.3680
                                        -0.0050 -0.0059  0.3811 -0.0045
 522. (0.00010) RY ( 4) H 22            s( 84.37%)p 0.17( 14.41%)d 0.01(  1.22%)
                                         0.0014  0.1488  0.9064  0.0417 -0.3381
                                        -0.0534 -0.1586 -0.0001 -0.0062 -0.0539
                                        -0.0023  0.0007  0.0243 -0.0931
 523. (0.00002) RY ( 5) H 22            s(  0.09%)p99.99( 96.41%)d41.16(  3.50%)
 524. (0.00002) RY ( 6) H 22            s( 20.30%)p 2.82( 57.34%)d 1.10( 22.36%)
 525. (0.00001) RY ( 7) H 22            s(  0.00%)p 1.00( 77.70%)d 0.29( 22.29%)
 526. (0.00000) RY ( 8) H 22            s(  4.10%)p10.76( 44.08%)d12.66( 51.83%)
 527. (0.00000) RY ( 9) H 22            s(  0.00%)p 1.00(  0.03%)d99.99( 99.97%)
 528. (0.00000) RY (10) H 22            s(  0.85%)p19.39( 16.43%)d97.61( 82.72%)
 529. (0.00000) RY (11) H 22            s(  1.33%)p43.73( 57.96%)d30.71( 40.71%)
 530. (0.00000) RY (12) H 22            s(  0.00%)p 1.00( 31.56%)d 2.17( 68.43%)
 531. (0.00000) RY (13) H 22            s(  0.00%)p 1.00( 32.04%)d 2.12( 67.96%)
 532. (0.00046) RY ( 1) H 23            s( 89.01%)p 0.11(  9.61%)d 0.02(  1.38%)
                                        -0.0019  0.9432 -0.0213 -0.0816 -0.1139
                                         0.1630 -0.2234  0.0011  0.0020  0.0074
                                         0.0029  0.0000 -0.1083  0.0453
 533. (0.00013) RY ( 2) H 23            s(  1.27%)p59.24( 75.52%)d18.20( 23.20%)
                                         0.0000  0.1115 -0.0179  0.6977  0.5067
                                         0.1010 -0.0363 -0.0105 -0.0071 -0.4693
                                        -0.0021  0.0070  0.1081 -0.0065
 534. (0.00011) RY ( 3) H 23            s(  0.00%)p 1.00( 87.95%)d 0.14( 12.05%)
                                         0.0000  0.0003 -0.0003  0.0067 -0.0122
                                         0.0001 -0.0005  0.4354 -0.8305 -0.0053
                                         0.0471 -0.3439  0.0006 -0.0015
 535. (0.00010) RY ( 4) H 23            s( 87.41%)p 0.14( 12.19%)d 0.00(  0.40%)
                                         0.0021  0.1206  0.9271  0.0331 -0.0072
                                        -0.1252  0.3242 -0.0004 -0.0003 -0.0234
                                        -0.0010  0.0002 -0.0291 -0.0509
 536. (0.00003) RY ( 5) H 23            s(  0.40%)p99.99( 96.55%)d 7.68(  3.05%)
 537. (0.00001) RY ( 6) H 23            s( 17.07%)p 3.48( 59.43%)d 1.38( 23.50%)
 538. (0.00001) RY ( 7) H 23            s(  0.00%)p 1.00( 70.52%)d 0.42( 29.48%)
 539. (0.00000) RY ( 8) H 23            s(  0.00%)p 1.00( 10.97%)d 8.11( 89.02%)
 540. (0.00000) RY ( 9) H 23            s(  1.95%)p18.19( 35.53%)d32.00( 62.52%)
 541. (0.00000) RY (10) H 23            s(  1.66%)p13.49( 22.45%)d45.60( 75.89%)
 542. (0.00000) RY (11) H 23            s(  0.70%)p68.32( 47.49%)d74.55( 51.82%)
 543. (0.00000) RY (12) H 23            s(  0.56%)p73.65( 41.21%)d99.99( 58.23%)
 544. (0.00000) RY (13) H 23            s(  0.00%)p 1.00( 30.56%)d 2.27( 69.44%)
 545. (0.00115) RY ( 1) H 24            s( 97.72%)p 0.02(  1.99%)d 0.00(  0.29%)
                                         0.0027  0.9885  0.0008  0.0256  0.1320
                                         0.0253 -0.0349  0.0001 -0.0020  0.0244
                                        -0.0005 -0.0007  0.0470  0.0085
 546. (0.00022) RY ( 2) H 24            s( 11.05%)p 7.07( 78.16%)d 0.98( 10.80%)
                                         0.0047 -0.0426  0.3296  0.2204  0.2830
                                        -0.4536 -0.6687 -0.0045 -0.0034  0.0854
                                         0.0033 -0.0006 -0.3103 -0.0662
 547. (0.00012) RY ( 3) H 24            s( 71.12%)p 0.35( 24.89%)d 0.06(  4.00%)
                                         0.0004  0.0437  0.8422 -0.2557 -0.3813
                                         0.1881 -0.0511 -0.0004  0.0093 -0.0715
                                        -0.0023  0.0029  0.1827 -0.0381
 548. (0.00009) RY ( 4) H 24            s(  0.00%)p 1.00( 84.94%)d 0.18( 15.06%)
 549. (0.00004) RY ( 5) H 24            s(  4.40%)p18.93( 83.30%)d 2.80( 12.30%)
 550. (0.00002) RY ( 6) H 24            s( 13.52%)p 5.59( 75.60%)d 0.81( 10.88%)
 551. (0.00001) RY ( 7) H 24            s(  0.00%)p 1.00( 84.26%)d 0.19( 15.74%)
 552. (0.00001) RY ( 8) H 24            s(  1.10%)p49.27( 54.29%)d40.48( 44.60%)
 553. (0.00000) RY ( 9) H 24            s(  0.00%)p 1.00( 25.73%)d 2.89( 74.27%)
 554. (0.00000) RY (10) H 24            s(  0.75%)p21.13( 15.83%)d99.99( 83.42%)
 555. (0.00000) RY (11) H 24            s(  0.01%)p 1.00( 46.50%)d 1.15( 53.49%)
 556. (0.00000) RY (12) H 24            s(  0.38%)p51.48( 19.41%)d99.99( 80.21%)
 557. (0.00000) RY (13) H 24            s(  0.00%)p 1.00(  5.07%)d18.73( 94.93%)


 NHO DIRECTIONALITY AND BOND BENDING (deviation from line of nuclear centers at
                                      the position of maximum hybrid amplitude)

         [Thresholds for printing:  angular deviation  >  1.0 degree]
                                    p- or d-character  > 25.0%
                                    orbital occupancy  >  0.10e

                        Line of Centers        Hybrid 1             Hybrid 2
                        ---------------  -------------------  ------------------
           NBO            Theta   Phi    Theta   Phi    Dev   Theta   Phi    Dev
 ===============================================================================
  14. LP ( 1) O  1          --     --     91.1   91.0   --      --     --    --
  15. LP ( 2) O  1          --     --     88.6  359.3   --      --     --    --
  16. LP ( 1) N  3          --     --    171.3  305.5   --      --     --    --
  17. LP ( 1) C  5          --     --      0.6   96.5   --      --     --    --
  18. LP ( 1) N  6          --     --     89.9   97.4   --      --     --    --
  19. BD ( 1) O  1- C  2   89.0  270.1    75.5  269.5  13.5    75.6   91.1  15.4
  20. BD ( 2) O  1- C  2   89.0  270.1   164.8  275.3  75.9   163.5   87.1  72.6
  21. BD ( 1) C  2- N  3   90.4  330.6    89.5  332.9   2.4     --     --    --
  22. BD ( 1) C  2- C  5   89.5  217.6    89.9  215.5   2.2    90.6   39.0   1.4
  23. BD ( 1) N  3- C  4   80.6   29.7    79.9   28.1   1.7    99.0  211.6   2.0
  24. BD ( 1) N  3- H 14   76.1  267.5    74.8  267.4   1.3     --     --    --
  25. BD ( 1) C  4- H 15  126.2  336.0   126.5  334.7   1.1     --     --    --
  26. BD ( 1) C  4- H 16   19.0  350.5    18.1  346.6   1.5     --     --    --
  27. BD ( 1) C  4- H 17  101.9  100.3   102.0   99.2   1.1     --     --    --
  28. BD ( 1) C  5- N  6   89.3  159.2    89.6  157.9   1.3     --     --    --
  30. BD ( 1) N  6- C  7   89.3  215.1     --     --    --     90.7   36.1   1.0
  31. BD ( 2) N  6- C  7   89.3  215.1     1.3  276.5  88.7   179.2   88.8  88.9
  34. BD ( 1) C  8- C  9   89.3  215.4    89.3  217.3   1.9     --     --    --
  35. BD ( 2) C  8- C  9   89.3  215.4     0.3  259.0  89.1   179.2  126.2  89.3
  36. BD ( 1) C  8- C 13   89.8   98.6    89.9   96.8   1.8     --     --    --
  37. BD ( 1) C  9- C 10   89.2  157.0    89.2  158.4   1.5    90.8  335.4   1.6
  39. BD ( 1) C 10- C 11   89.8   97.8    89.8   99.7   1.9    90.1  275.5   2.3
  40. BD ( 2) C 10- C 11   89.8   97.8     1.3   43.4  89.1     1.4  327.1  89.2
  42. BD ( 1) C 11- C 12   90.7   36.1    90.6   38.4   2.3    89.3  214.4   1.8
  44. BD ( 1) C 12- C 13   90.8  337.4    90.8  338.8   1.4    89.2  156.1   1.3
  45. BD ( 2) C 12- C 13   90.8  337.4   179.5  263.1  89.1     0.1  119.2  89.1
  47. BD ( 1) C 13- H 24   90.7   35.7    90.7   36.7   1.1     --     --    --


 3-Center, 4-Electron A:-B-:C Hyperbonds (A-B :C <=> A: B-C)
              [threshold for detection: 33.3%]

                                                  NBOs       3-center hybrids
                                              -------------  ----------------
       Hyperbond A:-B-:C   %A-B/%B-C   occ    BD(A-B) LP(C)  h(A)  h(B)  h(C)
      -------------------  ---------  ------  ------- -----  ----  ----  ----
   1.  O  1:- C  2-: C  5  56.9/43.1  3.6675      20     17    21    22    17
   2.  C  7:- N  6-: C  5  56.7/43.3  3.5806      31     17    43    44    17


 SECOND ORDER PERTURBATION THEORY ANALYSIS OF FOCK MATRIX IN NBO BASIS

     Threshold for printing:   0.50 kcal/mol
                                                          E(2) E(NL)-E(L) F(L,NL)
      Donor (L) NBO              Acceptor (NL) NBO      kcal/mol   a.u.    a.u.
 ===============================================================================

 within unit  1
   14. LP ( 1) O  1            50. BD*( 1) C  2- N  3      2.16    1.10   0.043
   14. LP ( 1) O  1            51. BD*( 1) C  2- C  5      2.88    1.16   0.051
   14. LP ( 1) O  1           103. RY ( 1) C  2           14.44    1.88   0.147
   15. LP ( 2) O  1            50. BD*( 1) C  2- N  3     33.48    0.77   0.143
   15. LP ( 2) O  1            51. BD*( 1) C  2- C  5     22.54    0.83   0.122
   15. LP ( 2) O  1            56. BD*( 1) C  4- H 17      0.93    0.74   0.023
   15. LP ( 2) O  1           104. RY ( 2) C  2            0.74    1.80   0.032
   15. LP ( 2) O  1           107. RY ( 5) C  2            1.78    3.66   0.072
   16. LP ( 1) N  3            48. BD*( 1) O  1- C  2      2.08    0.95   0.040
   16. LP ( 1) N  3            49. BD*( 2) O  1- C  2     52.41    0.40   0.130
   16. LP ( 1) N  3            54. BD*( 1) C  4- H 15      6.34    0.72   0.060
   16. LP ( 1) N  3            55. BD*( 1) C  4- H 16     10.50    0.71   0.077
   16. LP ( 1) N  3           106. RY ( 4) C  2            1.85    1.94   0.054
   16. LP ( 1) N  3           155. RY ( 1) C  4            1.43    1.55   0.042
   16. LP ( 1) N  3           415. RY ( 1) H 14            1.00    1.42   0.034
   17. LP ( 1) C  5            48. BD*( 1) O  1- C  2      1.37    0.77   0.029
   17. LP ( 1) C  5            49. BD*( 2) O  1- C  2    105.86    0.22   0.136
   17. LP ( 1) C  5            60. BD*( 2) N  6- C  7    155.95    0.18   0.149
   17. LP ( 1) C  5            64. BD*( 2) C  8- C  9      0.62    0.18   0.009
   17. LP ( 1) C  5           105. RY ( 3) C  2            0.87    2.17   0.039
   17. LP ( 1) C  5           109. RY ( 7) C  2            0.72    2.13   0.035
   17. LP ( 1) C  5           181. RY ( 1) C  5            2.20    0.69   0.035
   17. LP ( 1) C  5           209. RY ( 3) N  6            1.77    2.73   0.062
   17. LP ( 1) C  5           210. RY ( 4) N  6            0.53    0.96   0.020
   17. LP ( 1) C  5           468. RY ( 2) H 18            0.84    1.79   0.035
   18. LP ( 1) N  6            51. BD*( 1) C  2- C  5      6.22    0.86   0.065
   18. LP ( 1) N  6            58. BD*( 1) C  5- H 18     15.38    0.77   0.097
   18. LP ( 1) N  6            61. BD*( 1) C  7- C  8      4.73    0.90   0.058
   18. LP ( 1) N  6            62. BD*( 1) C  7- H 19     15.85    0.77   0.099
   18. LP ( 1) N  6            63. BD*( 1) C  8- C  9      0.55    0.92   0.020
   18. LP ( 1) N  6            73. BD*( 1) C 12- C 13      0.54    0.96   0.020
   18. LP ( 1) N  6           182. RY ( 2) C  5            3.76    1.87   0.075
   18. LP ( 1) N  6           233. RY ( 1) C  7            4.60    1.69   0.079
   19. BD ( 1) O  1- C  2      49. BD*( 2) O  1- C  2      0.73    1.03   0.024
   19. BD ( 1) O  1- C  2      51. BD*( 1) C  2- C  5      0.83    1.46   0.031
   19. BD ( 1) O  1- C  2      53. BD*( 1) N  3- H 14      0.89    1.41   0.032
   19. BD ( 1) O  1- C  2      58. BD*( 1) C  5- H 18      0.72    1.37   0.028
   20. BD ( 2) O  1- C  2      49. BD*( 2) O  1- C  2      2.28    0.54   0.031
   20. BD ( 2) O  1- C  2     129. RY ( 1) N  3            0.59    1.15   0.023
   20. BD ( 2) O  1- C  2     181. RY ( 1) C  5            0.55    1.02   0.021
   21. BD ( 1) C  2- N  3      54. BD*( 1) C  4- H 15      0.93    1.16   0.029
   21. BD ( 1) C  2- N  3      56. BD*( 1) C  4- H 17      0.72    1.18   0.026
   21. BD ( 1) C  2- N  3      57. BD*( 1) C  5- N  6      1.74    1.40   0.044
   21. BD ( 1) C  2- N  3     157. RY ( 3) C  4            1.02    1.96   0.040
   21. BD ( 1) C  2- N  3     183. RY ( 3) C  5            0.56    2.16   0.031
   22. BD ( 1) C  2- C  5      52. BD*( 1) N  3- C  4      3.77    1.06   0.056
   22. BD ( 1) C  2- C  5      57. BD*( 1) C  5- N  6      0.72    1.28   0.027
   22. BD ( 1) C  2- C  5      59. BD*( 1) N  6- C  7      3.99    1.29   0.064
   22. BD ( 1) C  2- C  5      77. RY ( 1) O  1            0.59    1.49   0.026
   22. BD ( 1) C  2- C  5     130. RY ( 2) N  3            0.80    1.85   0.034
   22. BD ( 1) C  2- C  5     207. RY ( 1) N  6            1.32    1.53   0.040
   23. BD ( 1) N  3- C  4      51. BD*( 1) C  2- C  5      1.88    1.26   0.043
   23. BD ( 1) N  3- C  4     103. RY ( 1) C  2            1.06    1.98   0.041
   23. BD ( 1) N  3- C  4     108. RY ( 6) C  2            0.60    2.91   0.037
   24. BD ( 1) N  3- H 14      48. BD*( 1) O  1- C  2      3.47    1.32   0.060
   24. BD ( 1) N  3- H 14      49. BD*( 2) O  1- C  2      1.74    0.77   0.033
   24. BD ( 1) N  3- H 14      56. BD*( 1) C  4- H 17      2.05    1.10   0.042
   24. BD ( 1) N  3- H 14     104. RY ( 2) C  2            1.21    2.16   0.046
   24. BD ( 1) N  3- H 14     156. RY ( 2) C  4            1.03    1.93   0.040
   25. BD ( 1) C  4- H 15      50. BD*( 1) C  2- N  3      3.14    1.01   0.050
   25. BD ( 1) C  4- H 15     129. RY ( 1) N  3            0.60    1.24   0.024
   26. BD ( 1) C  4- H 16      50. BD*( 1) C  2- N  3      0.71    1.01   0.024
   26. BD ( 1) C  4- H 16     129. RY ( 1) N  3            1.13    1.24   0.033
   27. BD ( 1) C  4- H 17      50. BD*( 1) C  2- N  3      0.51    1.00   0.020
   27. BD ( 1) C  4- H 17      53. BD*( 1) N  3- H 14      4.32    1.01   0.059
   27. BD ( 1) C  4- H 17     130. RY ( 2) N  3            0.72    1.75   0.032
   28. BD ( 1) C  5- N  6      50. BD*( 1) C  2- N  3      1.55    1.24   0.039
   28. BD ( 1) C  5- N  6      51. BD*( 1) C  2- C  5      0.73    1.30   0.028
   28. BD ( 1) C  5- N  6      59. BD*( 1) N  6- C  7      0.84    1.43   0.031
   28. BD ( 1) C  5- N  6      61. BD*( 1) C  7- C  8      2.72    1.34   0.054
   28. BD ( 1) C  5- N  6     103. RY ( 1) C  2            0.92    2.03   0.039
   28. BD ( 1) C  5- N  6     235. RY ( 3) C  7            1.81    2.33   0.058
   28. BD ( 1) C  5- N  6     236. RY ( 4) C  7            0.61    2.27   0.033
   29. BD ( 1) C  5- H 18      48. BD*( 1) O  1- C  2      4.54    1.18   0.065
   29. BD ( 1) C  5- H 18      52. BD*( 1) N  3- C  4      0.50    0.96   0.020
   29. BD ( 1) C  5- H 18     104. RY ( 2) C  2            0.99    2.02   0.040
   29. BD ( 1) C  5- H 18     207. RY ( 1) N  6            1.30    1.43   0.038
   30. BD ( 1) N  6- C  7      51. BD*( 1) C  2- C  5      2.14    1.31   0.047
   30. BD ( 1) N  6- C  7      57. BD*( 1) C  5- N  6      0.83    1.43   0.031
   30. BD ( 1) N  6- C  7      61. BD*( 1) C  7- C  8      1.16    1.34   0.035
   30. BD ( 1) N  6- C  7      63. BD*( 1) C  8- C  9      2.09    1.37   0.048
   30. BD ( 1) N  6- C  7     183. RY ( 3) C  5            2.40    2.19   0.065
   30. BD ( 1) N  6- C  7     260. RY ( 2) C  8            1.18    2.16   0.045
   31. BD ( 2) N  6- C  7      60. BD*( 2) N  6- C  7      4.16    0.39   0.036
   31. BD ( 2) N  6- C  7      64. BD*( 2) C  8- C  9     21.83    0.39   0.083
   31. BD ( 2) N  6- C  7     181. RY ( 1) C  5            2.95    0.91   0.046
   31. BD ( 2) N  6- C  7     262. RY ( 4) C  8            0.71    2.35   0.037
   32. BD ( 1) C  7- C  8      57. BD*( 1) C  5- N  6      3.79    1.28   0.062
   32. BD ( 1) C  7- C  8      59. BD*( 1) N  6- C  7      1.18    1.28   0.035
   32. BD ( 1) C  7- C  8      63. BD*( 1) C  8- C  9      0.74    1.21   0.027
   32. BD ( 1) C  7- C  8      65. BD*( 1) C  8- C 13      0.75    1.21   0.027
   32. BD ( 1) C  7- C  8      66. BD*( 1) C  9- C 10      2.38    1.23   0.048
   32. BD ( 1) C  7- C  8      73. BD*( 1) C 12- C 13      2.27    1.25   0.048
   32. BD ( 1) C  7- C  8     207. RY ( 1) N  6            0.98    1.52   0.034
   32. BD ( 1) C  7- C  8     285. RY ( 1) C  9            1.41    2.17   0.049
   32. BD ( 1) C  7- C  8     389. RY ( 1) C 13            1.18    2.17   0.045
   33. BD ( 1) C  7- H 19      65. BD*( 1) C  8- C 13      5.30    1.11   0.068
   33. BD ( 1) C  7- H 19     207. RY ( 1) N  6            0.97    1.42   0.033
   33. BD ( 1) C  7- H 19     208. RY ( 2) N  6            0.71    1.86   0.032
   33. BD ( 1) C  7- H 19     259. RY ( 1) C  8            0.60    1.91   0.030
   33. BD ( 1) C  7- H 19     260. RY ( 2) C  8            1.06    1.90   0.040
   34. BD ( 1) C  8- C  9      59. BD*( 1) N  6- C  7      1.81    1.30   0.043
   34. BD ( 1) C  8- C  9      61. BD*( 1) C  7- C  8      0.73    1.20   0.027
   34. BD ( 1) C  8- C  9      65. BD*( 1) C  8- C 13      0.94    1.22   0.030
   34. BD ( 1) C  8- C  9      66. BD*( 1) C  9- C 10      0.98    1.25   0.031
   34. BD ( 1) C  8- C  9      70. BD*( 1) C 10- H 21      2.65    1.11   0.049
   34. BD ( 1) C  8- C  9      76. BD*( 1) C 13- H 24      2.74    1.13   0.050
   34. BD ( 1) C  8- C  9     235. RY ( 3) C  7            1.27    2.20   0.047
   34. BD ( 1) C  8- C  9     311. RY ( 1) C 10            0.92    2.18   0.040
   34. BD ( 1) C  8- C  9     312. RY ( 2) C 10            0.78    1.93   0.035
   34. BD ( 1) C  8- C  9     389. RY ( 1) C 13            1.01    2.19   0.042
   35. BD ( 2) C  8- C  9      60. BD*( 2) N  6- C  7     18.66    0.33   0.070
   35. BD ( 2) C  8- C  9      69. BD*( 2) C 10- C 11     36.31    0.33   0.097
   35. BD ( 2) C  8- C  9      74. BD*( 2) C 12- C 13     24.21    0.34   0.081
   35. BD ( 2) C  8- C  9     234. RY ( 2) C  7            0.93    0.79   0.024
   35. BD ( 2) C  8- C  9     313. RY ( 3) C 10            1.42    0.84   0.031
   35. BD ( 2) C  8- C  9     391. RY ( 3) C 13            1.65    0.79   0.032
   36. BD ( 1) C  8- C 13      61. BD*( 1) C  7- C  8      0.85    1.20   0.028
   36. BD ( 1) C  8- C 13      62. BD*( 1) C  7- H 19      2.23    1.07   0.044
   36. BD ( 1) C  8- C 13      63. BD*( 1) C  8- C  9      0.91    1.22   0.030
   36. BD ( 1) C  8- C 13      67. BD*( 1) C  9- H 20      3.01    1.11   0.052
   36. BD ( 1) C  8- C 13      73. BD*( 1) C 12- C 13      0.97    1.26   0.031
   36. BD ( 1) C  8- C 13      75. BD*( 1) C 12- H 23      2.80    1.11   0.050
   36. BD ( 1) C  8- C 13     235. RY ( 3) C  7            0.98    2.19   0.041
   36. BD ( 1) C  8- C 13     285. RY ( 1) C  9            0.94    2.18   0.040
   36. BD ( 1) C  8- C 13     363. RY ( 1) C 12            0.93    2.18   0.040
   36. BD ( 1) C  8- C 13     364. RY ( 2) C 12            0.80    1.92   0.035
   37. BD ( 1) C  9- C 10      61. BD*( 1) C  7- C  8      3.16    1.22   0.055
   37. BD ( 1) C  9- C 10      63. BD*( 1) C  8- C  9      1.20    1.24   0.034
   37. BD ( 1) C  9- C 10      68. BD*( 1) C 10- C 11      1.09    1.26   0.033
   37. BD ( 1) C  9- C 10      72. BD*( 1) C 11- H 22      2.65    1.13   0.049
   37. BD ( 1) C  9- C 10     259. RY ( 1) C  8            1.09    2.05   0.042
   37. BD ( 1) C  9- C 10     260. RY ( 2) C  8            1.08    2.04   0.042
   37. BD ( 1) C  9- C 10     337. RY ( 1) C 11            1.00    2.25   0.042
   37. BD ( 1) C  9- C 10     339. RY ( 3) C 11            0.63    2.02   0.032
   38. BD ( 1) C  9- H 20      65. BD*( 1) C  8- C 13      5.13    1.12   0.068
   38. BD ( 1) C  9- H 20      68. BD*( 1) C 10- C 11      4.53    1.14   0.064
   38. BD ( 1) C  9- H 20      70. BD*( 1) C 10- H 21      0.76    1.01   0.025
   38. BD ( 1) C  9- H 20     259. RY ( 1) C  8            1.34    1.93   0.045
   38. BD ( 1) C  9- H 20     260. RY ( 2) C  8            0.59    1.91   0.030
   38. BD ( 1) C  9- H 20     264. RY ( 6) C  8            0.51    4.31   0.042
   38. BD ( 1) C  9- H 20     311. RY ( 1) C 10            1.49    2.08   0.050
   39. BD ( 1) C 10- C 11      66. BD*( 1) C  9- C 10      1.07    1.27   0.033
   39. BD ( 1) C 10- C 11      67. BD*( 1) C  9- H 20      2.70    1.13   0.049
   39. BD ( 1) C 10- C 11      71. BD*( 1) C 11- C 12      1.00    1.25   0.032
   39. BD ( 1) C 10- C 11      75. BD*( 1) C 12- H 23      2.70    1.13   0.049
   39. BD ( 1) C 10- C 11     285. RY ( 1) C  9            1.12    2.20   0.044
   39. BD ( 1) C 10- C 11     287. RY ( 3) C  9            0.73    1.97   0.034
   39. BD ( 1) C 10- C 11     363. RY ( 1) C 12            1.22    2.20   0.046
   40. BD ( 2) C 10- C 11      64. BD*( 2) C  8- C  9     23.98    0.35   0.082
   40. BD ( 2) C 10- C 11      74. BD*( 2) C 12- C 13     29.46    0.36   0.092
   40. BD ( 2) C 10- C 11     286. RY ( 2) C  9            1.67    0.80   0.033
   40. BD ( 2) C 10- C 11     365. RY ( 3) C 12            1.82    0.87   0.035
   41. BD ( 1) C 10- H 21      63. BD*( 1) C  8- C  9      4.74    1.13   0.065
   41. BD ( 1) C 10- H 21      67. BD*( 1) C  9- H 20      0.75    1.02   0.025
   41. BD ( 1) C 10- H 21      71. BD*( 1) C 11- C 12      4.20    1.14   0.062
   41. BD ( 1) C 10- H 21      72. BD*( 1) C 11- H 22      0.68    1.02   0.023
   41. BD ( 1) C 10- H 21     285. RY ( 1) C  9            1.65    2.08   0.052
   41. BD ( 1) C 10- H 21     337. RY ( 1) C 11            1.69    2.13   0.054
   42. BD ( 1) C 11- C 12      68. BD*( 1) C 10- C 11      1.00    1.25   0.032
   42. BD ( 1) C 11- C 12      70. BD*( 1) C 10- H 21      2.83    1.13   0.050
   42. BD ( 1) C 11- C 12      73. BD*( 1) C 12- C 13      1.08    1.28   0.033
   42. BD ( 1) C 11- C 12      76. BD*( 1) C 13- H 24      2.72    1.14   0.050
   42. BD ( 1) C 11- C 12     311. RY ( 1) C 10            1.18    2.19   0.045
   42. BD ( 1) C 11- C 12     389. RY ( 1) C 13            1.13    2.20   0.045
   42. BD ( 1) C 11- C 12     390. RY ( 2) C 13            0.77    1.90   0.034
   43. BD ( 1) C 11- H 22      66. BD*( 1) C  9- C 10      4.26    1.15   0.063
   43. BD ( 1) C 11- H 22      70. BD*( 1) C 10- H 21      0.64    1.02   0.023
   43. BD ( 1) C 11- H 22      73. BD*( 1) C 12- C 13      4.16    1.17   0.062
   43. BD ( 1) C 11- H 22      75. BD*( 1) C 12- H 23      0.63    1.02   0.023
   43. BD ( 1) C 11- H 22     311. RY ( 1) C 10            1.59    2.08   0.051
   43. BD ( 1) C 11- H 22     363. RY ( 1) C 12            1.56    2.09   0.051
   44. BD ( 1) C 12- C 13      61. BD*( 1) C  7- C  8      3.18    1.22   0.056
   44. BD ( 1) C 12- C 13      65. BD*( 1) C  8- C 13      1.18    1.24   0.034
   44. BD ( 1) C 12- C 13      71. BD*( 1) C 11- C 12      1.09    1.25   0.033
   44. BD ( 1) C 12- C 13      72. BD*( 1) C 11- H 22      2.57    1.13   0.048
   44. BD ( 1) C 12- C 13      76. BD*( 1) C 13- H 24      0.52    1.15   0.022
   44. BD ( 1) C 12- C 13     259. RY ( 1) C  8            2.02    2.05   0.057
   44. BD ( 1) C 12- C 13     337. RY ( 1) C 11            0.94    2.25   0.041
   44. BD ( 1) C 12- C 13     339. RY ( 3) C 11            0.64    2.02   0.032
   45. BD ( 2) C 12- C 13      64. BD*( 2) C  8- C  9     26.83    0.35   0.087
   45. BD ( 2) C 12- C 13      69. BD*( 2) C 10- C 11     24.10    0.34   0.081
   45. BD ( 2) C 12- C 13     261. RY ( 3) C  8            0.77    1.21   0.027
   45. BD ( 2) C 12- C 13     338. RY ( 2) C 11            1.69    0.79   0.033
   46. BD ( 1) C 12- H 23      65. BD*( 1) C  8- C 13      4.84    1.12   0.066
   46. BD ( 1) C 12- H 23      68. BD*( 1) C 10- C 11      4.18    1.14   0.062
   46. BD ( 1) C 12- H 23      72. BD*( 1) C 11- H 22      0.67    1.01   0.023
   46. BD ( 1) C 12- H 23      76. BD*( 1) C 13- H 24      0.70    1.03   0.024
   46. BD ( 1) C 12- H 23     337. RY ( 1) C 11            1.66    2.13   0.053
   46. BD ( 1) C 12- H 23     389. RY ( 1) C 13            1.71    2.09   0.053
   47. BD ( 1) C 13- H 24      63. BD*( 1) C  8- C  9      5.08    1.11   0.067
   47. BD ( 1) C 13- H 24      71. BD*( 1) C 11- C 12      4.63    1.12   0.064
   47. BD ( 1) C 13- H 24      75. BD*( 1) C 12- H 23      0.80    1.00   0.025
   47. BD ( 1) C 13- H 24     259. RY ( 1) C  8            1.88    1.92   0.054
   47. BD ( 1) C 13- H 24     363. RY ( 1) C 12            1.47    2.07   0.049


 NATURAL BOND ORBITALS (Summary):

                                                     Principal Delocalizations
           NBO                 Occupancy    Energy   (geminal,vicinal,remote)
 ===============================================================================
 Molecular unit  1  (C10H11N2O)
 ------ Lewis --------------------------------------
    1. CR ( 1) O  1             2.00000   -19.54481
    2. CR ( 1) C  2             1.99999   -10.59157
    3. CR ( 1) N  3             1.99999   -14.72277
    4. CR ( 1) C  4             1.99999   -10.53730
    5. CR ( 1) C  5             1.99999   -10.49586
    6. CR ( 1) N  6             1.99999   -14.71109
    7. CR ( 1) C  7             1.99999   -10.50658
    8. CR ( 1) C  8             1.99999   -10.52102
    9. CR ( 1) C  9             1.99999   -10.51219
   10. CR ( 1) C 10             1.99999   -10.52013
   11. CR ( 1) C 11             1.99999   -10.51240
   12. CR ( 1) C 12             1.99999   -10.51870
   13. CR ( 1) C 13             1.99999   -10.50734
   14. LP ( 1) O  1             1.97794    -0.61009  103(v),51(v),50(v)
   15. LP ( 2) O  1             1.87061    -0.28418  50(v),51(v),107(v),56(r)
                                                     104(v)
   16. LP ( 1) N  3             1.78323    -0.28354  49(v),55(v),54(v),48(v)
                                                     106(v),155(v),415(v)
   17. LP ( 1) C  5             1.28154    -0.10144  60(v),49(v),181(g),209(v)
                                                     48(v),105(v),468(v),109(v)
                                                     64(r),210(v)
   18. LP ( 1) N  6             1.88231    -0.31765  62(v),58(v),51(v),61(v)
                                                     233(v),182(v),63(r),73(r)
   19. BD ( 1) O  1- C  2       1.99387    -0.91257  53(v),51(g),49(g),58(v)
   20. BD ( 2) O  1- C  2       1.99098    -0.42408  49(g),129(v),181(v)
   21. BD ( 1) C  2- N  3       1.99005    -0.72622  57(v),157(v),54(v),56(v)
                                                     183(v)
   22. BD ( 1) C  2- C  5       1.98131    -0.61534  59(v),52(v),207(v),130(v)
                                                     57(g),77(v)
   23. BD ( 1) N  3- C  4       1.99431    -0.71410  51(v),103(v),108(v)
   24. BD ( 1) N  3- H 14       1.98325    -0.64843  48(v),56(v),49(v),104(v)
                                                     156(v)
   25. BD ( 1) C  4- H 15       1.99101    -0.52168  50(v),129(v)
   26. BD ( 1) C  4- H 16       1.99224    -0.52016  129(v),50(v)
   27. BD ( 1) C  4- H 17       1.98828    -0.51653  53(v),130(v),50(v)
   28. BD ( 1) C  5- N  6       1.98676    -0.75688  61(v),235(v),50(v),103(v)
                                                     59(g),51(g),236(v)
   29. BD ( 1) C  5- H 18       1.98514    -0.50939  48(v),207(v),104(v),52(r)
   30. BD ( 1) N  6- C  7       1.98754    -0.76260  183(v),51(v),63(v),260(v)
                                                     61(g),57(g)
   31. BD ( 2) N  6- C  7       1.86182    -0.31469  64(v),60(g),181(v),262(v)
   32. BD ( 1) C  7- C  8       1.98001    -0.60649  57(v),66(v),73(v),285(v)
                                                     59(g),389(v),207(v),65(g)
                                                     63(g)
   33. BD ( 1) C  7- H 19       1.98452    -0.50622  65(v),260(v),207(v),208(v)
                                                     259(v)
   34. BD ( 1) C  8- C  9       1.97961    -0.62421  76(v),70(v),59(v),235(v)
                                                     389(v),66(g),65(g),311(v)
                                                     312(v),61(g)
   35. BD ( 2) C  8- C  9       1.61548    -0.25431  69(v),74(v),60(v),391(v)
                                                     313(v),234(v)
   36. BD ( 1) C  8- C 13       1.97623    -0.61683  67(v),75(v),62(v),235(v)
                                                     73(g),285(v),363(v),63(g)
                                                     61(g),364(v)
   37. BD ( 1) C  9- C 10       1.98437    -0.64189  61(v),72(v),63(g),68(g)
                                                     259(v),260(v),337(v),339(v)
   38. BD ( 1) C  9- H 20       1.97936    -0.51900  65(v),68(v),311(v),259(v)
                                                     70(v),260(v),264(v)
   39. BD ( 1) C 10- C 11       1.98366    -0.63850  67(v),75(v),363(v),285(v)
                                                     66(g),71(g),287(v)
   40. BD ( 2) C 10- C 11       1.69836    -0.26997  74(v),64(v),365(v),286(v)
   41. BD ( 1) C 10- H 21       1.97990    -0.52459  63(v),71(v),337(v),285(v)
                                                     67(v),72(v)
   42. BD ( 1) C 11- C 12       1.98369    -0.63513  70(v),76(v),311(v),389(v)
                                                     73(g),68(g),390(v)
   43. BD ( 1) C 11- H 22       1.98103    -0.52444  66(v),73(v),311(v),363(v)
                                                     70(v),75(v)
   44. BD ( 1) C 12- C 13       1.98440    -0.64157  61(v),72(v),259(v),65(g)
                                                     71(g),337(v),339(v),76(g)
   45. BD ( 2) C 12- C 13       1.72130    -0.27017  64(v),69(v),338(v),261(v)
   46. BD ( 1) C 12- H 23       1.97992    -0.52212  65(v),68(v),389(v),337(v)
                                                     76(v),72(v)
   47. BD ( 1) C 13- H 24       1.97876    -0.51021  63(v),71(v),259(v),363(v)
                                                     75(v)
 ------ non-Lewis ----------------------------------
   48. BD*( 1) O  1- C  2       0.03572     0.67076
   49. BD*( 2) O  1- C  2       0.39499     0.11863
   50. BD*( 1) C  2- N  3       0.08500     0.48578
   51. BD*( 1) C  2- C  5       0.06310     0.54583
   52. BD*( 1) N  3- C  4       0.00907     0.44623
   53. BD*( 1) N  3- H 14       0.01505     0.49610
   54. BD*( 1) C  4- H 15       0.01596     0.43545
   55. BD*( 1) C  4- H 16       0.02417     0.42730
   56. BD*( 1) C  4- H 17       0.01283     0.45198
   57. BD*( 1) C  5- N  6       0.00954     0.66946
   58. BD*( 1) C  5- H 18       0.04217     0.45569
   59. BD*( 1) N  6- C  7       0.00952     0.67745
   60. BD*( 2) N  6- C  7       0.43729     0.07709
   61. BD*( 1) C  7- C  8       0.02371     0.57852
   62. BD*( 1) C  7- H 19       0.04474     0.45186
   63. BD*( 1) C  8- C  9       0.02009     0.60297
   64. BD*( 2) C  8- C  9       0.41922     0.08011
   65. BD*( 1) C  8- C 13       0.02453     0.59923
   66. BD*( 1) C  9- C 10       0.01215     0.62836
   67. BD*( 1) C  9- H 20       0.01457     0.49046
   68. BD*( 1) C 10- C 11       0.01457     0.61771
   69. BD*( 2) C 10- C 11       0.38531     0.07363
   70. BD*( 1) C 10- H 21       0.01342     0.49077
   71. BD*( 1) C 11- C 12       0.01503     0.61173
   72. BD*( 1) C 11- H 22       0.01283     0.49200
   73. BD*( 1) C 12- C 13       0.01239     0.64260
   74. BD*( 2) C 12- C 13       0.31435     0.08700
   75. BD*( 1) C 12- H 23       0.01374     0.49351
   76. BD*( 1) C 13- H 24       0.01503     0.50775
   77. RY ( 1) O  1             0.00258     0.87337
   78. RY ( 2) O  1             0.00239     0.83997
   79. RY ( 3) O  1             0.00030     1.71562
   80. RY ( 4) O  1             0.00017     1.70132
   81. RY ( 5) O  1             0.00009     1.88615
   82. RY ( 6) O  1             0.00007     1.93896
   83. RY ( 7) O  1             0.00005     2.65130
   84. RY ( 8) O  1             0.00001     3.90516
   85. RY ( 9) O  1             0.00001     4.52843
   86. RY (10) O  1             0.00000     5.82650
   87. RY (11) O  1             0.00000    21.15527
   88. RY (12) O  1             0.00000     5.73454
   89. RY (13) O  1             0.00000     7.19395
   90. RY (14) O  1             0.00000     6.46820
   91. RY (15) O  1             0.00000     5.72449
   92. RY (16) O  1             0.00000     3.49525
   93. RY (17) O  1             0.00000     3.32657
   94. RY (18) O  1             0.00000     4.39937
   95. RY (19) O  1             0.00000     3.45587
   96. RY (20) O  1             0.00000     5.65310
   97. RY (21) O  1             0.00000     5.97796
   98. RY (22) O  1             0.00000     5.44729
   99. RY (23) O  1             0.00000     6.11247
  100. RY (24) O  1             0.00000    16.34626
  101. RY (25) O  1             0.00000    10.76603
  102. RY (26) O  1             0.00000     6.84095
  103. RY ( 1) C  2             0.01509     1.26829
  104. RY ( 2) C  2             0.00662     1.51277
  105. RY ( 3) C  2             0.00437     2.06938
  106. RY ( 4) C  2             0.00228     1.65730
  107. RY ( 5) C  2             0.00159     3.37913
  108. RY ( 6) C  2             0.00078     2.19308
  109. RY ( 7) C  2             0.00049     2.03072
  110. RY ( 8) C  2             0.00026     2.52547
  111. RY ( 9) C  2             0.00013     1.90597
  112. RY (10) C  2             0.00004     3.47871
  113. RY (11) C  2             0.00004     2.82054
  114. RY (12) C  2             0.00002     2.91105
  115. RY (13) C  2             0.00001     2.05103
  116. RY (14) C  2             0.00001     3.02105
  117. RY (15) C  2             0.00000     3.25930
  118. RY (16) C  2             0.00000     3.60897
  119. RY (17) C  2             0.00000     8.92331
  120. RY (18) C  2             0.00000     7.23140
  121. RY (19) C  2             0.00000     3.37446
  122. RY (20) C  2             0.00000     2.90482
  123. RY (21) C  2             0.00000     3.64667
  124. RY (22) C  2             0.00000     7.68260
  125. RY (23) C  2             0.00000     2.97798
  126. RY (24) C  2             0.00000     4.95285
  127. RY (25) C  2             0.00000     2.97139
  128. RY (26) C  2             0.00000     3.34657
  129. RY ( 1) N  3             0.00371     0.72166
  130. RY ( 2) N  3             0.00268     1.23519
  131. RY ( 3) N  3             0.00119     1.78333
  132. RY ( 4) N  3             0.00037     1.55195
  133. RY ( 5) N  3             0.00016     2.30313
  134. RY ( 6) N  3             0.00015     3.27627
  135. RY ( 7) N  3             0.00010     3.27908
  136. RY ( 8) N  3             0.00005     3.40703
  137. RY ( 9) N  3             0.00003     3.51882
  138. RY (10) N  3             0.00001     2.91881
  139. RY (11) N  3             0.00001     2.48185
  140. RY (12) N  3             0.00000     3.39376
  141. RY (13) N  3             0.00000     3.13098
  142. RY (14) N  3             0.00000     4.18053
  143. RY (15) N  3             0.00000     3.80051
  144. RY (16) N  3             0.00000     3.82445
  145. RY (17) N  3             0.00000     7.06138
  146. RY (18) N  3             0.00000     4.56504
  147. RY (19) N  3             0.00000     6.02378
  148. RY (20) N  3             0.00000     5.25507
  149. RY (21) N  3             0.00000    20.68524
  150. RY (22) N  3             0.00000     5.11515
  151. RY (23) N  3             0.00000     5.07633
  152. RY (24) N  3             0.00000     4.40050
  153. RY (25) N  3             0.00000     4.56285
  154. RY (26) N  3             0.00000     5.18017
  155. RY ( 1) C  4             0.00263     1.26413
  156. RY ( 2) C  4             0.00165     1.28449
  157. RY ( 3) C  4             0.00108     1.23875
  158. RY ( 4) C  4             0.00033     1.76243
  159. RY ( 5) C  4             0.00013     1.43095
  160. RY ( 6) C  4             0.00008     1.86014
  161. RY ( 7) C  4             0.00006     1.99787
  162. RY ( 8) C  4             0.00005     2.52072
  163. RY ( 9) C  4             0.00001     2.06957
  164. RY (10) C  4             0.00000     2.76243
  165. RY (11) C  4             0.00000     3.61775
  166. RY (12) C  4             0.00000     4.91223
  167. RY (13) C  4             0.00000     4.24179
  168. RY (14) C  4             0.00000     4.69268
  169. RY (15) C  4             0.00000     6.01514
  170. RY (16) C  4             0.00000     5.82823
  171. RY (17) C  4             0.00000     2.43059
  172. RY (18) C  4             0.00000     2.44613
  173. RY (19) C  4             0.00000     3.59898
  174. RY (20) C  4             0.00000     3.61643
  175. RY (21) C  4             0.00000     3.65462
  176. RY (22) C  4             0.00000     4.04836
  177. RY (23) C  4             0.00000     5.64360
  178. RY (24) C  4             0.00000     5.17944
  179. RY (25) C  4             0.00000     3.77685
  180. RY (26) C  4             0.00000     2.52816
  181. RY ( 1) C  5             0.00565     0.59126
  182. RY ( 2) C  5             0.00502     1.55248
  183. RY ( 3) C  5             0.00294     1.43183
  184. RY ( 4) C  5             0.00081     1.42087
  185. RY ( 5) C  5             0.00032     1.55439
  186. RY ( 6) C  5             0.00025     2.05557
  187. RY ( 7) C  5             0.00018     2.98989
  188. RY ( 8) C  5             0.00016     2.83176
  189. RY ( 9) C  5             0.00007     2.92982
  190. RY (10) C  5             0.00004     2.24432
  191. RY (11) C  5             0.00003     3.40210
  192. RY (12) C  5             0.00002     3.70008
  193. RY (13) C  5             0.00001     2.31358
  194. RY (14) C  5             0.00001     2.18106
  195. RY (15) C  5             0.00000     2.97461
  196. RY (16) C  5             0.00000     4.55152
  197. RY (17) C  5             0.00000     3.35338
  198. RY (18) C  5             0.00000     3.00881
  199. RY (19) C  5             0.00000     3.35444
  200. RY (20) C  5             0.00000     3.78874
  201. RY (21) C  5             0.00000     4.44281
  202. RY (22) C  5             0.00000    10.97817
  203. RY (23) C  5             0.00000     4.44216
  204. RY (24) C  5             0.00000     4.10058
  205. RY (25) C  5             0.00000     5.25778
  206. RY (26) C  5             0.00000     4.64503
  207. RY ( 1) N  6             0.00712     0.91827
  208. RY ( 2) N  6             0.00193     1.34993
  209. RY ( 3) N  6             0.00104     2.62656
  210. RY ( 4) N  6             0.00070     0.86243
  211. RY ( 5) N  6             0.00067     1.27368
  212. RY ( 6) N  6             0.00017     2.69748
  213. RY ( 7) N  6             0.00011     3.24233
  214. RY ( 8) N  6             0.00008     3.78892
  215. RY ( 9) N  6             0.00002     2.11482
  216. RY (10) N  6             0.00002     2.92356
  217. RY (11) N  6             0.00001     3.63615
  218. RY (12) N  6             0.00001     3.63503
  219. RY (13) N  6             0.00001     3.39253
  220. RY (14) N  6             0.00001     4.80555
  221. RY (15) N  6             0.00000     3.56089
  222. RY (16) N  6             0.00000     4.27820
  223. RY (17) N  6             0.00000     4.91841
  224. RY (18) N  6             0.00000     4.74500
  225. RY (19) N  6             0.00000     7.24010
  226. RY (20) N  6             0.00000    14.95878
  227. RY (21) N  6             0.00000     4.67610
  228. RY (22) N  6             0.00000     4.03082
  229. RY (23) N  6             0.00000    11.92357
  230. RY (24) N  6             0.00000     4.64896
  231. RY (25) N  6             0.00000     5.32405
  232. RY (26) N  6             0.00000     5.94755
  233. RY ( 1) C  7             0.00668     1.37338
  234. RY ( 2) C  7             0.00461     0.54052
  235. RY ( 3) C  7             0.00370     1.57155
  236. RY ( 4) C  7             0.00102     1.51007
  237. RY ( 5) C  7             0.00050     2.41828
  238. RY ( 6) C  7             0.00022     2.99328
  239. RY ( 7) C  7             0.00011     2.03878
  240. RY ( 8) C  7             0.00009     2.63152
  241. RY ( 9) C  7             0.00006     2.42888
  242. RY (10) C  7             0.00005     1.74046
  243. RY (11) C  7             0.00004     3.76641
  244. RY (12) C  7             0.00002     3.00132
  245. RY (13) C  7             0.00001     2.84598
  246. RY (14) C  7             0.00001     2.47443
  247. RY (15) C  7             0.00001     2.77494
  248. RY (16) C  7             0.00000     3.37704
  249. RY (17) C  7             0.00000     3.32931
  250. RY (18) C  7             0.00000     3.14071
  251. RY (19) C  7             0.00000     5.03203
  252. RY (20) C  7             0.00000    12.79291
  253. RY (21) C  7             0.00000     3.41169
  254. RY (22) C  7             0.00000     2.26443
  255. RY (23) C  7             0.00000     9.43848
  256. RY (24) C  7             0.00000     3.35553
  257. RY (25) C  7             0.00000     2.94769
  258. RY (26) C  7             0.00000     3.13925
  259. RY ( 1) C  8             0.00719     1.40786
  260. RY ( 2) C  8             0.00348     1.39557
  261. RY ( 3) C  8             0.00176     0.94129
  262. RY ( 4) C  8             0.00059     2.03813
  263. RY ( 5) C  8             0.00056     1.70786
  264. RY ( 6) C  8             0.00037     3.78686
  265. RY ( 7) C  8             0.00031     3.25355
  266. RY ( 8) C  8             0.00023     3.45755
  267. RY ( 9) C  8             0.00011     2.96501
  268. RY (10) C  8             0.00005     3.63215
  269. RY (11) C  8             0.00004     2.50193
  270. RY (12) C  8             0.00002     2.49508
  271. RY (13) C  8             0.00002     3.36972
  272. RY (14) C  8             0.00001     2.95655
  273. RY (15) C  8             0.00001     3.47730
  274. RY (16) C  8             0.00000     3.36626
  275. RY (17) C  8             0.00000     2.22250
  276. RY (18) C  8             0.00000     8.97871
  277. RY (19) C  8             0.00000     9.19313
  278. RY (20) C  8             0.00000     2.18550
  279. RY (21) C  8             0.00000     8.29104
  280. RY (22) C  8             0.00000     1.91781
  281. RY (23) C  8             0.00000     4.20631
  282. RY (24) C  8             0.00000     3.60256
  283. RY (25) C  8             0.00000     2.61911
  284. RY (26) C  8             0.00000     3.30108
  285. RY ( 1) C  9             0.00485     1.55914
  286. RY ( 2) C  9             0.00155     0.53264
  287. RY ( 3) C  9             0.00145     1.33643
  288. RY ( 4) C  9             0.00058     1.99893
  289. RY ( 5) C  9             0.00031     2.81006
  290. RY ( 6) C  9             0.00030     3.58778
  291. RY ( 7) C  9             0.00024     1.67961
  292. RY ( 8) C  9             0.00010     2.29323
  293. RY ( 9) C  9             0.00005     2.84355
  294. RY (10) C  9             0.00003     2.23621
  295. RY (11) C  9             0.00001     2.93322
  296. RY (12) C  9             0.00001     2.83408
  297. RY (13) C  9             0.00001     3.44590
  298. RY (14) C  9             0.00000     3.85361
  299. RY (15) C  9             0.00000     3.12894
  300. RY (16) C  9             0.00000     3.37035
  301. RY (17) C  9             0.00000     3.40008
  302. RY (18) C  9             0.00000     2.88278
  303. RY (19) C  9             0.00000     2.29776
  304. RY (20) C  9             0.00000     3.85195
  305. RY (21) C  9             0.00000     2.98309
  306. RY (22) C  9             0.00000    11.10431
  307. RY (23) C  9             0.00000     7.10625
  308. RY (24) C  9             0.00000     3.95138
  309. RY (25) C  9             0.00000     1.82991
  310. RY (26) C  9             0.00000     5.89587
  311. RY ( 1) C 10             0.00470     1.55827
  312. RY ( 2) C 10             0.00147     1.30441
  313. RY ( 3) C 10             0.00114     0.58796
  314. RY ( 4) C 10             0.00050     1.56195
  315. RY ( 5) C 10             0.00048     2.75417
  316. RY ( 6) C 10             0.00033     3.77330
  317. RY ( 7) C 10             0.00009     2.59309
  318. RY ( 8) C 10             0.00006     1.64228
  319. RY ( 9) C 10             0.00002     2.32970
  320. RY (10) C 10             0.00001     3.41892
  321. RY (11) C 10             0.00001     3.45048
  322. RY (12) C 10             0.00001     3.36870
  323. RY (13) C 10             0.00000     2.60378
  324. RY (14) C 10             0.00000     3.71408
  325. RY (15) C 10             0.00000     3.56339
  326. RY (16) C 10             0.00000     3.50309
  327. RY (17) C 10             0.00000     3.28780
  328. RY (18) C 10             0.00000     3.28988
  329. RY (19) C 10             0.00000     2.36054
  330. RY (20) C 10             0.00000     2.66217
  331. RY (21) C 10             0.00000     5.54753
  332. RY (22) C 10             0.00000     3.14760
  333. RY (23) C 10             0.00000     8.62917
  334. RY (24) C 10             0.00000     7.32702
  335. RY (25) C 10             0.00000     5.77605
  336. RY (26) C 10             0.00000     1.74233
  337. RY ( 1) C 11             0.00465     1.60466
  338. RY ( 2) C 11             0.00270     0.52232
  339. RY ( 3) C 11             0.00132     1.37975
  340. RY ( 4) C 11             0.00045     1.34995
  341. RY ( 5) C 11             0.00033     3.77256
  342. RY ( 6) C 11             0.00029     3.18713
  343. RY ( 7) C 11             0.00009     2.61455
  344. RY ( 8) C 11             0.00003     1.60298
  345. RY ( 9) C 11             0.00001     2.98003
  346. RY (10) C 11             0.00001     3.66667
  347. RY (11) C 11             0.00000     2.84900
  348. RY (12) C 11             0.00000     1.43335
  349. RY (13) C 11             0.00000     2.52309
  350. RY (14) C 11             0.00000     3.89651
  351. RY (15) C 11             0.00000     4.45963
  352. RY (16) C 11             0.00000     3.96657
  353. RY (17) C 11             0.00000     3.34232
  354. RY (18) C 11             0.00000     3.23517
  355. RY (19) C 11             0.00000     3.31531
  356. RY (20) C 11             0.00000     2.89678
  357. RY (21) C 11             0.00000     3.46704
  358. RY (22) C 11             0.00000     1.63641
  359. RY (23) C 11             0.00000     4.47692
  360. RY (24) C 11             0.00000     2.13337
  361. RY (25) C 11             0.00000     3.01429
  362. RY (26) C 11             0.00000    16.38731
  363. RY ( 1) C 12             0.00469     1.56263
  364. RY ( 2) C 12             0.00147     1.30139
  365. RY ( 3) C 12             0.00104     0.59725
  366. RY ( 4) C 12             0.00050     1.63181
  367. RY ( 5) C 12             0.00048     2.67422
  368. RY ( 6) C 12             0.00033     3.75096
  369. RY ( 7) C 12             0.00009     2.50472
  370. RY ( 8) C 12             0.00005     1.77351
  371. RY ( 9) C 12             0.00002     2.91227
  372. RY (10) C 12             0.00001     3.55922
  373. RY (11) C 12             0.00001     3.30432
  374. RY (12) C 12             0.00001     3.20755
  375. RY (13) C 12             0.00000     3.91060
  376. RY (14) C 12             0.00000     2.60846
  377. RY (15) C 12             0.00000     3.29468
  378. RY (16) C 12             0.00000     3.24176
  379. RY (17) C 12             0.00000     2.38827
  380. RY (18) C 12             0.00000     3.36677
  381. RY (19) C 12             0.00000     3.22897
  382. RY (20) C 12             0.00000     3.58705
  383. RY (21) C 12             0.00000     2.55962
  384. RY (22) C 12             0.00000    10.98986
  385. RY (23) C 12             0.00000     9.75909
  386. RY (24) C 12             0.00000     4.27539
  387. RY (25) C 12             0.00000     1.64861
  388. RY (26) C 12             0.00000     2.35711
  389. RY ( 1) C 13             0.00477     1.56827
  390. RY ( 2) C 13             0.00186     1.26031
  391. RY ( 3) C 13             0.00158     0.53511
  392. RY ( 4) C 13             0.00064     1.88983
  393. RY ( 5) C 13             0.00032     3.55932
  394. RY ( 6) C 13             0.00027     2.28994
  395. RY ( 7) C 13             0.00026     2.35927
  396. RY ( 8) C 13             0.00016     2.32553
  397. RY ( 9) C 13             0.00006     2.74124
  398. RY (10) C 13             0.00004     3.12620
  399. RY (11) C 13             0.00002     2.37306
  400. RY (12) C 13             0.00001     3.73036
  401. RY (13) C 13             0.00001     4.52220
  402. RY (14) C 13             0.00001     3.71753
  403. RY (15) C 13             0.00000     4.01801
  404. RY (16) C 13             0.00000     1.54299
  405. RY (17) C 13             0.00000     3.18353
  406. RY (18) C 13             0.00000     3.32788
  407. RY (19) C 13             0.00000     3.26038
  408. RY (20) C 13             0.00000     3.43699
  409. RY (21) C 13             0.00000     5.21569
  410. RY (22) C 13             0.00000     1.62084
  411. RY (23) C 13             0.00000     5.96658
  412. RY (24) C 13             0.00000     4.14242
  413. RY (25) C 13             0.00000     8.06913
  414. RY (26) C 13             0.00000     5.77395
  415. RY ( 1) H 14             0.00068     1.13251
  416. RY ( 2) H 14             0.00067     1.47485
  417. RY ( 3) H 14             0.00020     3.38835
  418. RY ( 4) H 14             0.00018     2.00836
  419. RY ( 5) H 14             0.00006     2.36834
  420. RY ( 6) H 14             0.00002     3.19048
  421. RY ( 7) H 14             0.00001     4.64822
  422. RY ( 8) H 14             0.00001     4.27024
  423. RY ( 9) H 14             0.00000     3.68068
  424. RY (10) H 14             0.00000     3.62545
  425. RY (11) H 14             0.00000     4.47302
  426. RY (12) H 14             0.00000     4.40056
  427. RY (13) H 14             0.00000     3.71900
  428. RY ( 1) H 15             0.00072     0.82178
  429. RY ( 2) H 15             0.00009     3.90734
  430. RY ( 3) H 15             0.00007     3.29014
  431. RY ( 4) H 15             0.00004     1.59975
  432. RY ( 5) H 15             0.00002     2.81531
  433. RY ( 6) H 15             0.00001     1.98116
  434. RY ( 7) H 15             0.00001     2.32017
  435. RY ( 8) H 15             0.00000     4.17092
  436. RY ( 9) H 15             0.00000     4.33250
  437. RY (10) H 15             0.00000     3.98207
  438. RY (11) H 15             0.00000     4.23481
  439. RY (12) H 15             0.00000     3.55447
  440. RY (13) H 15             0.00000     3.83183
  441. RY ( 1) H 16             0.00147     0.74000
  442. RY ( 2) H 16             0.00008     3.92331
  443. RY ( 3) H 16             0.00007     3.44645
  444. RY ( 4) H 16             0.00002     2.14754
  445. RY ( 5) H 16             0.00002     3.08954
  446. RY ( 6) H 16             0.00001     2.27688
  447. RY ( 7) H 16             0.00000     1.83433
  448. RY ( 8) H 16             0.00000     3.81455
  449. RY ( 9) H 16             0.00000     4.27270
  450. RY (10) H 16             0.00000     3.84203
  451. RY (11) H 16             0.00000     4.03436
  452. RY (12) H 16             0.00000     3.05180
  453. RY (13) H 16             0.00000     4.30051
  454. RY ( 1) H 17             0.00116     0.96995
  455. RY ( 2) H 17             0.00013     2.03240
  456. RY ( 3) H 17             0.00010     3.70231
  457. RY ( 4) H 17             0.00008     3.05717
  458. RY ( 5) H 17             0.00005     2.08605
  459. RY ( 6) H 17             0.00002     2.15449
  460. RY ( 7) H 17             0.00001     3.43129
  461. RY ( 8) H 17             0.00001     3.46418
  462. RY ( 9) H 17             0.00000     3.96504
  463. RY (10) H 17             0.00000     4.20403
  464. RY (11) H 17             0.00000     3.75302
  465. RY (12) H 17             0.00000     4.12423
  466. RY (13) H 17             0.00000     4.27317
  467. RY ( 1) H 18             0.00305     0.60846
  468. RY ( 2) H 18             0.00026     1.68429
  469. RY ( 3) H 18             0.00017     2.53583
  470. RY ( 4) H 18             0.00011     3.00224
  471. RY ( 5) H 18             0.00002     2.89363
  472. RY ( 6) H 18             0.00001     3.16916
  473. RY ( 7) H 18             0.00001     3.34310
  474. RY ( 8) H 18             0.00001     4.43655
  475. RY ( 9) H 18             0.00000     3.94533
  476. RY (10) H 18             0.00000     4.29763
  477. RY (11) H 18             0.00000     3.93790
  478. RY (12) H 18             0.00000     3.42315
  479. RY (13) H 18             0.00000     4.24107
  480. RY ( 1) H 19             0.00363     0.53744
  481. RY ( 2) H 19             0.00022     1.70194
  482. RY ( 3) H 19             0.00015     2.61498
  483. RY ( 4) H 19             0.00010     2.34380
  484. RY ( 5) H 19             0.00004     3.59150
  485. RY ( 6) H 19             0.00001     3.38452
  486. RY ( 7) H 19             0.00001     3.65092
  487. RY ( 8) H 19             0.00000     4.04605
  488. RY ( 9) H 19             0.00000     3.46802
  489. RY (10) H 19             0.00000     4.30554
  490. RY (11) H 19             0.00000     4.01440
  491. RY (12) H 19             0.00000     3.65394
  492. RY (13) H 19             0.00000     4.17472
  493. RY ( 1) H 20             0.00069     0.79549
  494. RY ( 2) H 20             0.00016     2.86550
  495. RY ( 3) H 20             0.00012     2.35710
  496. RY ( 4) H 20             0.00012     2.88660
  497. RY ( 5) H 20             0.00003     2.69438
  498. RY ( 6) H 20             0.00001     3.23661
  499. RY ( 7) H 20             0.00001     2.72767
  500. RY ( 8) H 20             0.00000     3.49473
  501. RY ( 9) H 20             0.00000     3.54131
  502. RY (10) H 20             0.00000     4.27535
  503. RY (11) H 20             0.00000     4.31287
  504. RY (12) H 20             0.00000     4.03757
  505. RY (13) H 20             0.00000     4.39124
  506. RY ( 1) H 21             0.00045     0.75874
  507. RY ( 2) H 21             0.00013     3.29591
  508. RY ( 3) H 21             0.00012     2.21090
  509. RY ( 4) H 21             0.00010     2.81277
  510. RY ( 5) H 21             0.00003     2.51742
  511. RY ( 6) H 21             0.00001     2.34242
  512. RY ( 7) H 21             0.00001     2.92787
  513. RY ( 8) H 21             0.00000     3.41864
  514. RY ( 9) H 21             0.00000     4.59936
  515. RY (10) H 21             0.00000     3.72258
  516. RY (11) H 21             0.00000     4.03006
  517. RY (12) H 21             0.00000     4.37180
  518. RY (13) H 21             0.00000     4.31895
  519. RY ( 1) H 22             0.00040     0.74167
  520. RY ( 2) H 22             0.00017     1.82812
  521. RY ( 3) H 22             0.00011     3.53040
  522. RY ( 4) H 22             0.00010     2.92093
  523. RY ( 5) H 22             0.00002     2.22731
  524. RY ( 6) H 22             0.00002     2.37879
  525. RY ( 7) H 22             0.00001     3.17847
  526. RY ( 8) H 22             0.00000     4.46497
  527. RY ( 9) H 22             0.00000     3.53570
  528. RY (10) H 22             0.00000     3.69006
  529. RY (11) H 22             0.00000     3.90839
  530. RY (12) H 22             0.00000     4.56479
  531. RY (13) H 22             0.00000     4.34022
  532. RY ( 1) H 23             0.00046     0.78481
  533. RY ( 2) H 23             0.00013     3.26605
  534. RY ( 3) H 23             0.00011     2.27483
  535. RY ( 4) H 23             0.00010     2.76113
  536. RY ( 5) H 23             0.00003     2.56291
  537. RY ( 6) H 23             0.00001     2.31649
  538. RY ( 7) H 23             0.00001     2.86855
  539. RY ( 8) H 23             0.00000     3.43001
  540. RY ( 9) H 23             0.00000     4.72090
  541. RY (10) H 23             0.00000     3.78497
  542. RY (11) H 23             0.00000     3.94807
  543. RY (12) H 23             0.00000     4.34485
  544. RY (13) H 23             0.00000     4.31257
  545. RY ( 1) H 24             0.00115     0.78149
  546. RY ( 2) H 24             0.00022     2.78006
  547. RY ( 3) H 24             0.00012     2.86144
  548. RY ( 4) H 24             0.00009     3.01813
  549. RY ( 5) H 24             0.00004     3.01778
  550. RY ( 6) H 24             0.00002     2.60583
  551. RY ( 7) H 24             0.00001     2.14307
  552. RY ( 8) H 24             0.00001     4.53130
  553. RY ( 9) H 24             0.00000     4.27634
  554. RY (10) H 24             0.00000     3.95074
  555. RY (11) H 24             0.00000     3.93491
  556. RY (12) H 24             0.00000     4.58297
  557. RY (13) H 24             0.00000     3.52318
          -------------------------------
                 Total Lewis   91.31266  ( 97.1411%)
           Valence non-Lewis    2.51006  (  2.6703%)
           Rydberg non-Lewis    0.17728  (  0.1886%)
          -------------------------------
               Total unit  1   94.00000  (100.0000%)
              Charge unit  1   -1.00000

 $CHOOSE
   LONE 1 2 3 1 5 1 6 1 END
   BOND D 1 2 S 2 3 S 2 5 S 3 4 S 3 14 S 4 15 S 4 16 S 4 17 S 5 6 S 5 18 D 6 7
        S 7 8 S 7 19 D 8 9 S 8 13 S 9 10 S 9 20 D 10 11 S 10 21 S 11 12 S 11 22
        D 12 13 S 12 23 S 13 24 END
 $END

 NBO analysis completed in 10.82 CPU seconds (12 wall seconds)
 Maximum scratch memory used by NBO was 3006583 words (22.94 MB)
 Maximum scratch memory used by G16NBO was 477671 words (3.64 MB)

 Opening RunExU unformatted file "/scratch/general/vast/u6067110/GAUSSSCRDIR/10754894-notchpeak.peaks/Gau-1229128.EUF"
 Read unf file /scratch/general/vast/u6067110/GAUSSSCRDIR/10754894-notchpeak.peaks/Gau-1229128.EUF:
 Label Gaussian matrix elements                                         IVers= 2 NLab= 2 Version=ES64L-G16RevC.01
 Title vsa3_crest_conformers-3                                         
 NAtoms=    24 NBasis=   557 NBsUse=   557 ICharg=    -1 Multip=     1 NE=    94 Len12L=8 Len4L=8 IOpCl= 0 ICGU=111
 GAUSSIAN SCALARS                    NI= 1 NR= 1 NTot=       1 LenBuf=    2 NRI=1 N=    1000
 NPA CHARGES                         NI= 0 NR= 1 NTot=      24 LenBuf= 4000 NRI=1 N=      24
 Recovered energy= -572.492151235     dipole=     -0.640342252478     -1.549538737522      0.319432638117

 ----------------------------------------------------------------------

 Electric dipole moment (input orientation):
 (Debye = 10**-18 statcoulomb cm , SI units = C m)
                  (au)            (Debye)         (10**-30 SI)
   Tot        0.170679D+01      0.433824D+01      0.144708D+02
   x         -0.611911D+00     -0.155532D+01     -0.518799D+01
   y         -0.157734D+01     -0.400921D+01     -0.133733D+02
   z          0.225154D+00      0.572285D+00      0.190894D+01

 Dipole polarizability, Alpha (input orientation).
 (esu units = cm**3 , SI units = C**2 m**2 J**-1)
 Alpha(0;0):
               (au)            (10**-24 esu)      (10**-40 SI)
   iso        0.268034D+03      0.397185D+02      0.441928D+02
   aniso      0.365447D+03      0.541536D+02      0.602541D+02
   xx         0.507283D+03      0.751716D+02      0.836397D+02
   yx         0.116964D+01      0.173322D+00      0.192847D+00
   yy         0.187946D+03      0.278508D+02      0.309882D+02
   zx         0.685336D+00      0.101556D+00      0.112997D+00
   zy         0.467674D+01      0.693022D+00      0.771091D+00
   zz         0.108872D+03      0.161331D+02      0.179505D+02

 First dipole hyperpolarizability, Beta (input orientation).
 ||, _|_  parallel and perpendicular components, (z) with respect to z axis,
 vector components x,y,z.  Values do not include the 1/n! factor of 1/2.
 (esu units = statvolt**-1 cm**4 , SI units = C**3 m**3 J**-2)
 Beta(0;0,0):
               (au)            (10**-30 esu)      (10**-50 SI)
   || (z)     0.235925D+03      0.203821D+01      0.756461D+00
   _|_(z)     0.786417D+02      0.679403D+00      0.252154D+00
   x         -0.299805D+05     -0.259008D+03     -0.961282D+02
   y          0.805347D+04      0.695757D+02      0.258223D+02
   z          0.117962D+04      0.101910D+02      0.378230D+01
   ||         0.621314D+04      0.536767D+02      0.199216D+02
   xxx       -0.100257D+05     -0.866140D+02     -0.321459D+02
   xxy        0.304153D+04      0.262764D+02      0.975223D+01
   yxy        0.450441D+00      0.389146D-02      0.144428D-02
   yyy       -0.335019D+03     -0.289430D+01     -0.107419D+01
   xxz        0.369392D+03      0.319126D+01      0.118441D+01
   yxz        0.133686D+02      0.115495D+00      0.428647D-01
   yyz       -0.154880D+02     -0.133804D+00     -0.496600D-01
   zxz        0.317368D+02      0.274181D+00      0.101760D+00
   zyz       -0.220176D+02     -0.190215D+00     -0.705964D-01
   zzz        0.393039D+02      0.339555D+00      0.126023D+00

 ----------------------------------------------------------------------

 Dipole orientation:
     8          4.02941679         -0.91021187         -4.44261555
     6          4.71654179         -1.58057560         -2.33508221
     7          7.13557489         -2.65157370         -2.02426165
     6          8.96660300         -2.50182496         -4.01263351
     6          3.29587915         -1.45208606         -0.00235672
     7          0.99624477         -0.49720806          0.07177897
     6         -0.37086070         -0.33126876          2.12848448
     6         -2.87665526          0.73726528          2.10458994
     6         -4.34350746          0.91160529          4.33365222
     6         -6.76237749          1.94257857          4.31503258
     6         -7.83021677          2.84641737          2.07700915
     6         -6.40305316          2.68843465         -0.15071054
     6         -3.99144531          1.66432028         -0.15080293
     1          7.76866421         -2.77404943         -0.22668008
     1         10.06359490         -4.26575017         -4.19870113
     1         10.32613169         -0.92424279         -3.79196776
     1          7.91115279         -2.17994473         -5.76884944
     1          4.19565869         -2.19345476          1.73500589
     1          0.36126749         -1.01153207          3.96715554
     1         -3.53796375          0.21292406          6.10457053
     1         -7.83517089          2.04288034          6.07908858
     1         -9.72815034          3.65497231          2.06225768
     1         -7.20233955          3.38445149         -1.92523304
     1         -2.86865902          1.53399554         -1.87576646

 Electric dipole moment (dipole orientation):
 (Debye = 10**-18 statcoulomb cm , SI units = C m)
                  (au)            (Debye)         (10**-30 SI)
   Tot        0.170679D+01      0.433824D+01      0.144708D+02
   x          0.000000D+00      0.000000D+00      0.000000D+00
   y          0.000000D+00      0.000000D+00      0.000000D+00
   z          0.170679D+01      0.433824D+01      0.144708D+02

 Dipole polarizability, Alpha (dipole orientation).
 (esu units = cm**3 , SI units = C**2 m**2 J**-1)
 Alpha(0;0):
               (au)            (10**-24 esu)      (10**-40 SI)
   iso        0.268034D+03      0.397185D+02      0.441928D+02
   aniso      0.365447D+03      0.541536D+02      0.602541D+02
   xx         0.427561D+03      0.633580D+02      0.704953D+02
   yx        -0.109068D+03     -0.161621D+02     -0.179828D+02
   yy         0.149355D+03      0.221322D+02      0.246253D+02
   zx        -0.107800D+03     -0.159743D+02     -0.177738D+02
   zy         0.199886D+02      0.296200D+01      0.329567D+01
   zz         0.227185D+03      0.336654D+02      0.374578D+02

 First dipole hyperpolarizability, Beta (dipole orientation).
 ||, _|_  parallel and perpendicular components, (z) with respect to z axis,
 vector components x,y,z.  Values do not include the 1/n! factor of 1/2.
 (esu units = statvolt**-1 cm**4 , SI units = C**3 m**3 J**-2)
 Beta(0;0,0):
               (au)            (10**-30 esu)      (10**-50 SI)
   || (z)     0.692276D+03      0.598073D+01      0.221969D+01
   _|_(z)     0.230759D+03      0.199358D+01      0.739896D+00
   x         -0.285105D+05     -0.246309D+03     -0.914150D+02
   y          0.118426D+05      0.102311D+03      0.379718D+02
   z          0.346138D+04      0.299036D+02      0.110984D+02
   ||         0.621314D+04      0.536767D+02      0.199216D+02
   xxx       -0.875526D+04     -0.756386D+02     -0.280725D+02
   xxy        0.356884D+04      0.308320D+02      0.114430D+02
   yxy       -0.134468D+04     -0.116170D+02     -0.431152D+01
   yyy        0.511568D+03      0.441955D+01      0.164027D+01
   xxz        0.115654D+04      0.999157D+01      0.370827D+01
   yxz       -0.665266D+03     -0.574738D+01     -0.213308D+01
   yyz        0.337491D+03      0.291566D+01      0.108212D+01
   zxz        0.596427D+03      0.515266D+01      0.191236D+01
   zyz       -0.132862D+03     -0.114782D+01     -0.426002D+00
   zzz       -0.340233D+03     -0.293935D+01     -0.109091D+01

 ----------------------------------------------------------------------
 Unable to Open any file for archive entry.
 1\1\GINC-NOTCH059\SP\RM062X\def2TZVPP\C10H11N2O1(1-)\U6067110\31-Jan-2
 026\0\\#N Guess=Read Geom=Check Integral(Ultrafine) Density Pop=NBO7 P
 op=Hirshfeld Pop=(ChelpG,ReadRadii) Polar Prop=(Potential,EFG) Volume 
 M062X EmpiricalDispersion=GD3 def2TZVPP SCRF(IEFPCM,solvent=THF)\\vsa3
 _crest_conformers-3\\-1,1\O,0,2.8739797003,1.430255528,0.0091930968\C,
 0,2.9003013729,0.2060711243,-0.0411626118\N,0,4.1419642129,-0.45975033
 71,-0.0842953188\C,0,5.354910531,0.2484818652,0.1975141181\C,0,1.77142
 44688,-0.6979861891,-0.0850097185\N,0,0.5307235382,-0.2540027154,-0.04
 91399286\C,0,-0.5264652852,-1.0265056677,-0.0837799377\C,0,-1.86288012
 03,-0.4878843525,-0.0382829569\C,0,-3.0008592553,-1.3281355509,-0.0757
 066453\C,0,-4.2916816272,-0.8104371418,-0.0317191323\C,0,-4.5079995745
 ,0.5668611388,0.05147844\C,0,-3.391426247,1.4147281036,0.0894656295\C,
 0,-2.101522883,0.9081965026,0.046148417\H,0,4.116876321,-1.4528162782,
 0.1014011689\H,0,6.1780202905,-0.0595708108,-0.4699904759\H,0,5.706423
 6156,0.1349049148,1.2423497564\H,0,5.1431395405,1.3126421232,0.0320931
 976\H,0,1.978726033,-1.7833039222,-0.1555861112\H,0,-0.4264918337,-2.1
 274616873,-0.1492075714\H,0,-2.8507407503,-2.40972176,-0.1409428262\H,
 0,-5.1451245801,-1.4939357829,-0.0630514963\H,0,-5.5207394239,0.973085
 6146,0.085794824\H,0,-3.5375130398,2.4967615906,0.1543343402\H,0,-1.22
 73950045,1.5609336903,0.0750117427\\Version=ES64L-G16RevC.01\State=1-A
 \HF=-572.4921512\RMSD=6.633e-09\Dipole=-0.6119105,-1.5773449,0.2251541
 \Polar=507.2833774,1.1696354,187.9463417,0.6853359,4.6767435,108.87187
 34\HyperPolar=-10025.6774627,3041.5261048,0.4504413,-335.0189874,369.3
 92339,13.3686353,-15.4879681,31.7367983,-22.017618,39.3038986\Quadrupo
 le=-6.88828,5.0083766,1.8799035,-8.9460585,1.6582603,-0.0821029\PG=C01
  [X(C10H11N2O1)]\\@
 The archive entry for this job was punched.


 We make a living by what we get,
 we make a life by what we give.
                   -- Sir Winston Churchill
 Job cpu time:       0 days  2 hours 44 minutes 10.6 seconds.
 Elapsed time:       0 days  0 hours  5 minutes 11.2 seconds.
 File lengths (MBytes):  RWF=    248 Int=      0 D2E=      0 Chk=     23 Scr=      2
 Normal termination of Gaussian 16 at Sat Jan 31 07:02:55 2026.
 Initial command:
 /uufs/chpc.utah.edu/sys/installdir/gaussian16/C01/AVX/g16/l1.exe "/scratch/general/vast/u6067110/GAUSSSCRDIR/10754894-notchpeak.peaks/Gau-1225098.inp" -scrdir="/scratch/general/vast/u6067110/GAUSSSCRDIR/10754894-notchpeak.peaks/"
 Entering Link 1 = /uufs/chpc.utah.edu/sys/installdir/gaussian16/C01/AVX/g16/l1.exe PID=   1229756.
  
 Copyright (c) 1988-2019, Gaussian, Inc.  All Rights Reserved.
  
 This is part of the Gaussian(R) 16 program.  It is based on
 the Gaussian(R) 09 system (copyright 2009, Gaussian, Inc.),
 the Gaussian(R) 03 system (copyright 2003, Gaussian, Inc.),
 the Gaussian(R) 98 system (copyright 1998, Gaussian, Inc.),
 the Gaussian(R) 94 system (copyright 1995, Gaussian, Inc.),
 the Gaussian 92(TM) system (copyright 1992, Gaussian, Inc.),
 the Gaussian 90(TM) system (copyright 1990, Gaussian, Inc.),
 the Gaussian 88(TM) system (copyright 1988, Gaussian, Inc.),
 the Gaussian 86(TM) system (copyright 1986, Carnegie Mellon
 University), and the Gaussian 82(TM) system (copyright 1983,
 Carnegie Mellon University). Gaussian is a federally registered
 trademark of Gaussian, Inc.
  
 This software contains proprietary and confidential information,
 including trade secrets, belonging to Gaussian, Inc.
  
 This software is provided under written license and may be
 used, copied, transmitted, or stored only in accord with that
 written license.
  
 The following legend is applicable only to US Government
 contracts under FAR:
  
                    RESTRICTED RIGHTS LEGEND
  
 Use, reproduction and disclosure by the US Government is
 subject to restrictions as set forth in subparagraphs (a)
 and (c) of the Commercial Computer Software - Restricted
 Rights clause in FAR 52.227-19.
  
 Gaussian, Inc.
 340 Quinnipiac St., Bldg. 40, Wallingford CT 06492
  
  
 ---------------------------------------------------------------
 Warning -- This program may not be used in any manner that
 competes with the business of Gaussian, Inc. or will provide
 assistance to any competitor of Gaussian, Inc.  The licensee
 of this program is prohibited from giving any competitor of
 Gaussian, Inc. access to this program.  By using this program,
 the user acknowledges that Gaussian, Inc. is engaged in the
 business of creating and licensing software in the field of
 computational chemistry and represents and warrants to the
 licensee that it is not a competitor of Gaussian, Inc. and that
 it will not use this program in any manner prohibited above.
 ---------------------------------------------------------------
  

 Cite this work as:
 Gaussian 16, Revision C.01,
 M. J. Frisch, G. W. Trucks, H. B. Schlegel, G. E. Scuseria, 
 M. A. Robb, J. R. Cheeseman, G. Scalmani, V. Barone, 
 G. A. Petersson, H. Nakatsuji, X. Li, M. Caricato, A. V. Marenich, 
 J. Bloino, B. G. Janesko, R. Gomperts, B. Mennucci, H. P. Hratchian, 
 J. V. Ortiz, A. F. Izmaylov, J. L. Sonnenberg, D. Williams-Young, 
 F. Ding, F. Lipparini, F. Egidi, J. Goings, B. Peng, A. Petrone, 
 T. Henderson, D. Ranasinghe, V. G. Zakrzewski, J. Gao, N. Rega, 
 G. Zheng, W. Liang, M. Hada, M. Ehara, K. Toyota, R. Fukuda, 
 J. Hasegawa, M. Ishida, T. Nakajima, Y. Honda, O. Kitao, H. Nakai, 
 T. Vreven, K. Throssell, J. A. Montgomery, Jr., J. E. Peralta, 
 F. Ogliaro, M. J. Bearpark, J. J. Heyd, E. N. Brothers, K. N. Kudin, 
 V. N. Staroverov, T. A. Keith, R. Kobayashi, J. Normand, 
 K. Raghavachari, A. P. Rendell, J. C. Burant, S. S. Iyengar, 
 J. Tomasi, M. Cossi, J. M. Millam, M. Klene, C. Adamo, R. Cammi, 
 J. W. Ochterski, R. L. Martin, K. Morokuma, O. Farkas, 
 J. B. Foresman, and D. J. Fox, Gaussian, Inc., Wallingford CT, 2019.
 
 ******************************************
 Gaussian 16:  ES64L-G16RevC.01  3-Jul-2019
                31-Jan-2026 
 ******************************************
 %NProcShared=32
 Will use up to   32 processors via shared memory.
 %Mem=48GB
 %chk=vsa3_crest_conformers-3.chk
 ----------------------------------------------------------------------
 #N Guess=Read Geom=Check Integral(Ultrafine) Density NMR M062X Empiric
 alDispersion=GD3 def2TZVPP SCRF(IEFPCM,solvent=THF)
 ----------------------------------------------------------------------
 1/29=2,38=1,172=1/1;
 2/12=2,40=1/2;
 3/5=44,7=202,11=2,14=-4,25=1,30=1,70=2201,72=20,74=-55,75=-5,116=-2,124=31/1,2,3,8;
 4/5=1/1;
 5/5=2,38=6,53=20/2;
 8/6=1,10=90,11=11/1;
 10/13=100,45=16/2;
 6/7=2,8=2,9=2,10=2,22=-1,28=1/1;
 99/9=1/99;
 -----------------------
 vsa3_crest_conformers-3
 -----------------------
 Structure from the checkpoint file:  "vsa3_crest_conformers-3.chk"
 Charge = -1 Multiplicity = 1
 Redundant internal coordinates found in file.  (old form).
 O,0,2.8739797003,1.430255528,0.0091930968
 C,0,2.9003013729,0.2060711243,-0.0411626118
 N,0,4.1419642129,-0.4597503371,-0.0842953188
 C,0,5.354910531,0.2484818652,0.1975141181
 C,0,1.7714244688,-0.6979861891,-0.0850097185
 N,0,0.5307235382,-0.2540027154,-0.0491399286
 C,0,-0.5264652852,-1.0265056677,-0.0837799377
 C,0,-1.8628801203,-0.4878843525,-0.0382829569
 C,0,-3.0008592553,-1.3281355509,-0.0757066453
 C,0,-4.2916816272,-0.8104371418,-0.0317191323
 C,0,-4.5079995745,0.5668611388,0.05147844
 C,0,-3.391426247,1.4147281036,0.0894656295
 C,0,-2.101522883,0.9081965026,0.046148417
 H,0,4.116876321,-1.4528162782,0.1014011689
 H,0,6.1780202905,-0.0595708108,-0.4699904759
 H,0,5.7064236156,0.1349049148,1.2423497564
 H,0,5.1431395405,1.3126421232,0.0320931976
 H,0,1.978726033,-1.7833039222,-0.1555861112
 H,0,-0.4264918337,-2.1274616873,-0.1492075714
 H,0,-2.8507407503,-2.40972176,-0.1409428262
 H,0,-5.1451245801,-1.4939357829,-0.0630514963
 H,0,-5.5207394239,0.9730856146,0.085794824
 H,0,-3.5375130398,2.4967615906,0.1543343402
 H,0,-1.2273950045,1.5609336903,0.0750117427
 Recover connectivity data from disk.
                           ----------------------------
                           !    Current Parameters    !
                           ! (Angstroms and Degrees)  !
 --------------------------                            --------------------------
 ! Name  Definition              Value                                          !
 --------------------------------------------------------------------------------
 ! R1    R(1,2)                  1.2255                                         !
 ! R2    R(2,3)                  1.4096                                         !
 ! R3    R(2,5)                  1.4469                                         !
 ! R4    R(3,4)                  1.4326                                         !
 ! R5    R(3,14)                 1.0106                                         !
 ! R6    R(4,15)                 1.1036                                         !
 ! R7    R(4,16)                 1.1082                                         !
 ! R8    R(4,17)                 1.0976                                         !
 ! R9    R(5,6)                  1.3182                                         !
 ! R10   R(5,18)                 1.1072                                         !
 ! R11   R(6,7)                  1.3098                                         !
 ! R12   R(7,8)                  1.4416                                         !
 ! R13   R(7,19)                 1.1074                                         !
 ! R14   R(8,9)                  1.4151                                         !
 ! R15   R(8,13)                 1.4188                                         !
 ! R16   R(9,10)                 1.3915                                         !
 ! R17   R(9,20)                 1.0939                                         !
 ! R18   R(10,11)                1.3967                                         !
 ! R19   R(10,21)                1.0939                                         !
 ! R20   R(11,12)                1.4025                                         !
 ! R21   R(11,22)                1.0917                                         !
 ! R22   R(12,13)                1.3865                                         !
 ! R23   R(12,23)                1.0938                                         !
 ! R24   R(13,24)                1.0913                                         !
 ! A1    A(1,2,3)              119.4738                                         !
 ! A2    A(1,2,5)              127.4903                                         !
 ! A3    A(3,2,5)              113.0285                                         !
 ! A4    A(2,3,4)              120.4171                                         !
 ! A5    A(2,3,14)             115.8919                                         !
 ! A6    A(4,3,14)             118.0784                                         !
 ! A7    A(3,4,15)             111.9942                                         !
 ! A8    A(3,4,16)             113.7884                                         !
 ! A9    A(3,4,17)             106.6377                                         !
 ! A10   A(15,4,16)            107.7622                                         !
 ! A11   A(15,4,17)            108.8676                                         !
 ! A12   A(16,4,17)            107.6177                                         !
 ! A13   A(2,5,6)              121.5362                                         !
 ! A14   A(2,5,18)             117.9255                                         !
 ! A15   A(6,5,18)             120.5375                                         !
 ! A16   A(5,6,7)              124.0764                                         !
 ! A17   A(6,7,8)              121.8062                                         !
 ! A18   A(6,7,19)             120.9999                                         !
 ! A19   A(8,7,19)             117.1939                                         !
 ! A20   A(7,8,9)              121.5218                                         !
 ! A21   A(7,8,13)             121.6977                                         !
 ! A22   A(9,8,13)             116.7806                                         !
 ! A23   A(8,9,10)             121.6188                                         !
 ! A24   A(8,9,20)             118.5758                                         !
 ! A25   A(10,9,20)            119.8055                                         !
 ! A26   A(9,10,11)            120.8277                                         !
 ! A27   A(9,10,21)            119.367                                          !
 ! A28   A(11,10,21)           119.8053                                         !
 ! A29   A(10,11,12)           118.3241                                         !
 ! A30   A(10,11,22)           120.8298                                         !
 ! A31   A(12,11,22)           120.8461                                         !
 ! A32   A(11,12,13)           121.2629                                         !
 ! A33   A(11,12,23)           119.5588                                         !
 ! A34   A(13,12,23)           119.1783                                         !
 ! A35   A(8,13,12)            121.1859                                         !
 ! A36   A(8,13,24)            117.0887                                         !
 ! A37   A(12,13,24)           121.7253                                         !
 ! D1    D(1,2,3,4)             12.5379                                         !
 ! D2    D(1,2,3,14)           165.623                                          !
 ! D3    D(5,2,3,4)           -168.3816                                         !
 ! D4    D(5,2,3,14)           -15.2966                                         !
 ! D5    D(1,2,5,6)             -1.261                                          !
 ! D6    D(1,2,5,18)           178.4198                                         !
 ! D7    D(3,2,5,6)            179.748                                          !
 ! D8    D(3,2,5,18)            -0.5712                                         !
 ! D9    D(2,3,4,15)          -140.583                                          !
 ! D10   D(2,3,4,16)            96.8961                                         !
 ! D11   D(2,3,4,17)           -21.59                                           !
 ! D12   D(14,3,4,15)           66.9043                                         !
 ! D13   D(14,3,4,16)          -55.6166                                         !
 ! D14   D(14,3,4,17)         -174.1027                                         !
 ! D15   D(2,5,6,7)           -179.89                                           !
 ! D16   D(18,5,6,7)             0.4375                                         !
 ! D17   D(5,6,7,8)            179.8395                                         !
 ! D18   D(5,6,7,19)            -0.1317                                         !
 ! D19   D(6,7,8,9)           -179.9821                                         !
 ! D20   D(6,7,8,13)             0.0139                                         !
 ! D21   D(19,7,8,9)            -0.01                                           !
 ! D22   D(19,7,8,13)          179.9861                                         !
 ! D23   D(7,8,9,10)           179.9907                                         !
 ! D24   D(7,8,9,20)            -0.0149                                         !
 ! D25   D(13,8,9,10)           -0.0055                                         !
 ! D26   D(13,8,9,20)          179.9888                                         !
 ! D27   D(7,8,13,12)         -179.991                                          !
 ! D28   D(7,8,13,24)            0.0221                                         !
 ! D29   D(9,8,13,12)            0.0053                                         !
 ! D30   D(9,8,13,24)         -179.9816                                         !
 ! D31   D(8,9,10,11)            0.0008                                         !
 ! D32   D(8,9,10,21)          179.9921                                         !
 ! D33   D(20,9,10,11)        -179.9934                                         !
 ! D34   D(20,9,10,21)          -0.0021                                         !
 ! D35   D(9,10,11,12)           0.0042                                         !
 ! D36   D(9,10,11,22)         179.9879                                         !
 ! D37   D(21,10,11,12)       -179.987                                          !
 ! D38   D(21,10,11,22)         -0.0033                                         !
 ! D39   D(10,11,12,13)         -0.0045                                         !
 ! D40   D(10,11,12,23)        179.9855                                         !
 ! D41   D(22,11,12,13)       -179.9882                                         !
 ! D42   D(22,11,12,23)          0.0019                                         !
 ! D43   D(11,12,13,8)          -0.0003                                         !
 ! D44   D(11,12,13,24)        179.9859                                         !
 ! D45   D(23,12,13,8)        -179.9904                                         !
 ! D46   D(23,12,13,24)         -0.0041                                         !
 --------------------------------------------------------------------------------
                          Input orientation:                          
 ---------------------------------------------------------------------
 Center     Atomic      Atomic             Coordinates (Angstroms)
 Number     Number       Type             X           Y           Z
 ---------------------------------------------------------------------
      1          8           0        2.873980    1.430256    0.009193
      2          6           0        2.900301    0.206071   -0.041163
      3          7           0        4.141964   -0.459750   -0.084295
      4          6           0        5.354911    0.248482    0.197514
      5          6           0        1.771424   -0.697986   -0.085010
      6          7           0        0.530724   -0.254003   -0.049140
      7          6           0       -0.526465   -1.026506   -0.083780
      8          6           0       -1.862880   -0.487884   -0.038283
      9          6           0       -3.000859   -1.328136   -0.075707
     10          6           0       -4.291682   -0.810437   -0.031719
     11          6           0       -4.508000    0.566861    0.051478
     12          6           0       -3.391426    1.414728    0.089466
     13          6           0       -2.101523    0.908197    0.046148
     14          1           0        4.116876   -1.452816    0.101401
     15          1           0        6.178020   -0.059571   -0.469990
     16          1           0        5.706424    0.134905    1.242350
     17          1           0        5.143140    1.312642    0.032093
     18          1           0        1.978726   -1.783304   -0.155586
     19          1           0       -0.426492   -2.127462   -0.149208
     20          1           0       -2.850741   -2.409722   -0.140943
     21          1           0       -5.145125   -1.493936   -0.063051
     22          1           0       -5.520739    0.973086    0.085795
     23          1           0       -3.537513    2.496762    0.154334
     24          1           0       -1.227395    1.560934    0.075012
 ---------------------------------------------------------------------
                    Distance matrix (angstroms):
                    1          2          3          4          5
     1  O    0.000000
     2  C    1.225502   0.000000
     3  N    2.277860   1.409576   0.000000
     4  C    2.754464   2.466551   1.432567   0.000000
     5  C    2.398732   1.446930   2.382481   3.717122   0.000000
     6  N    2.886343   2.413841   3.617268   4.856553   1.318236
     7  C    4.196111   3.641949   4.702706   6.024558   2.321255
     8  C    5.110710   4.813469   6.005087   7.259087   3.640672
     9  C    6.490737   6.097432   7.195422   8.507600   4.813717
    10  C    7.507934   7.263470   8.441098   9.707245   6.064383
    11  C    7.432419   7.417660   8.711730   9.869128   6.406999
    12  C    6.265939   6.408100   7.765039   8.824410   5.581132
    13  C    5.002953   5.051618   6.392920   7.487091   4.194848
    14  H    3.140923   2.062107   1.010590   2.106272   2.470964
    15  H    3.655938   3.316308   2.110552   1.103616   4.469214
    16  H    3.349828   3.086550   2.135681   1.108216   4.235541
    17  H    2.272321   2.502037   2.038939   1.097565   3.927442
    18  H    3.339999   2.195451   2.537021   3.956192   1.107190
    19  H    4.855466   4.065046   4.863771   6.260187   2.622662
    20  H    6.894954   6.318767   7.259719   8.632109   4.929257
    21  H    8.535933   8.223100   9.344518  10.646814   6.962232
    22  H    8.407507   8.456853   9.769841  10.900335   7.483135
    23  H    6.501211   6.836003   8.232392   9.172340   6.200687
    24  H    4.103984   4.345921   5.739213   6.712994   3.757824
                    6          7          8          9         10
     6  N    0.000000
     7  C    1.309813   0.000000
     8  C    2.405027   1.441592   0.000000
     9  C    3.691415   2.492724   1.415069   0.000000
    10  C    4.854432   3.771770   2.450135   1.391463   0.000000
    11  C    5.106141   4.290656   2.849070   2.424595   1.396662
    12  C    4.264637   3.767975   2.443912   2.775451   2.403436
    13  C    2.878977   2.498151   1.418845   2.413470   2.785060
    14  H    3.784218   4.666546   6.058720   7.121030   8.434110
    15  H    5.666293   6.784854   8.063864   9.274511  10.505738
    16  H    5.348557   6.477376   7.702094   8.927180  10.123193
    17  H    4.871895   6.134285   7.234028   8.562128   9.670956
    18  H    2.108745   2.617992   4.055837   5.000983   6.346639
    19  H    2.106211   1.107420   2.182597   2.696608   4.085101
    20  H    4.011216   2.705330   2.163300   1.093901   2.155447
    21  H    5.809723   4.642298   3.433057   2.150703   1.093854
    22  H    6.176096   5.382369   3.940782   3.416357   2.169181
    23  H    4.915145   4.640746   3.427770   3.869206   3.397197
    24  H    2.529899   2.685397   2.148100   3.393319   3.876164
                   11         12         13         14         15
    11  C    0.000000
    12  C    1.402518   0.000000
    13  C    2.430570   1.386471   0.000000
    14  H    8.858334   8.037261   6.651761   0.000000
    15  H   10.717060   9.698498   8.351875   2.552633   0.000000
    16  H   10.292677   9.259480   7.936807   2.519778   1.786710
    17  H    9.679930   8.535369   7.255957   2.950556   1.790540
    18  H    6.902446   6.255078   4.892167   2.178750   4.550184
    19  H    4.894727   4.625463   3.472623   4.600016   6.928106
    20  H    3.412269   3.869347   3.406598   7.037193   9.335417
    21  H    2.160076   3.399860   3.878876   9.263552  11.420885
    22  H    1.091713   2.174635   3.420062   9.938253  11.757392
    23  H    2.162623   1.093776   2.144134   8.613457  10.065595
    24  H    3.427988   2.169013   1.091329   6.135521   7.600213
                   16         17         18         19         20
    16  H    0.000000
    17  H    1.780190   0.000000
    18  H    4.419217   4.430984   0.000000
    19  H    6.683366   6.548891   2.429724   0.000000
    20  H    9.034029   8.819754   4.869945   2.440640   0.000000
    21  H   11.050488  10.664629   7.130326   4.761751   2.471625
    22  H   11.317657  10.669419   7.993618   5.968247   4.315517
    23  H    9.602734   8.761895   6.988841   5.581580   4.963106
    24  H    7.174544   6.375516   4.638568   3.781003   4.295113
                   21         22         23         24
    21  H    0.000000
    22  H    2.499887   0.000000
    23  H    4.307823   2.501894   0.000000
    24  H    4.969899   4.333415   2.493734   0.000000
 Stoichiometry    C10H11N2O(1-)
 Framework group  C1[X(C10H11N2O)]
 Deg. of freedom    66
 Full point group                 C1      NOp   1
 Largest Abelian subgroup         C1      NOp   1
 Largest concise Abelian subgroup C1      NOp   1
                         Standard orientation:                         
 ---------------------------------------------------------------------
 Center     Atomic      Atomic             Coordinates (Angstroms)
 Number     Number       Type             X           Y           Z
 ---------------------------------------------------------------------
      1          8           0        2.877551    1.399661   -0.088466
      2          6           0        2.880479    0.174343   -0.067450
      3          7           0        4.109096   -0.516537   -0.077085
      4          6           0        5.336720    0.183525    0.157650
      5          6           0        1.734512   -0.708930   -0.053575
      6          7           0        0.502629   -0.239913   -0.038256
      7          6           0       -0.569130   -0.992717   -0.023174
      8          6           0       -1.894868   -0.426845   -0.003347
      9          6           0       -3.048696   -1.245883    0.013259
     10          6           0       -4.329255   -0.701856    0.032601
     11          6           0       -4.519072    0.681843    0.036268
     12          6           0       -3.386499    1.508926    0.019874
     13          6           0       -2.106645    0.976101    0.000554
     14          1           0        4.066278   -1.496441    0.166323
     15          1           0        6.150205   -0.178594   -0.494332
     16          1           0        5.691732    0.124266    1.205790
     17          1           0        5.144177    1.240110   -0.068632
     18          1           0        1.920896   -1.800290   -0.061633
     19          1           0       -0.490320   -2.097328   -0.024713
     20          1           0       -2.919384   -2.332111    0.010563
     21          1           0       -5.195609   -1.369536    0.044905
     22          1           0       -5.523759    1.108712    0.051245
     23          1           0       -3.511774    2.595501    0.022159
     24          1           0       -1.220204    1.612537   -0.012512
 ---------------------------------------------------------------------
 Rotational constants (GHZ):           3.2091453           0.2702441           0.2498462
 Standard basis: def2TZVPP (5D, 7F)
 There are   633 symmetry adapted cartesian basis functions of A   symmetry.
 There are   557 symmetry adapted basis functions of A   symmetry.
   557 basis functions,   850 primitive gaussians,   633 cartesian basis functions
    47 alpha electrons       47 beta electrons
       nuclear repulsion energy       687.3508090995 Hartrees.
 NAtoms=   24 NActive=   24 NUniq=   24 SFac= 1.00D+00 NAtFMM=   60 NAOKFM=F Big=F
 Integral buffers will be    131072 words long.
 Raffenetti 2 integral format.
 Two-electron integral symmetry is turned on.
 Nuclear repulsion after empirical dispersion term =      687.3500159247 Hartrees.
 ------------------------------------------------------------------------------
 Polarizable Continuum Model (PCM)
 =================================
 Model                : PCM.
 Atomic radii         : UFF (Universal Force Field).
 Polarization charges : Total charges.
 Charge compensation  : None.
 Solution method      : On-the-fly selection.
 Cavity type          : Scaled VdW (van der Waals Surface) (Alpha=1.100).
 Cavity algorithm     : GePol (No added spheres)
                        Default sphere list used, NSphG=   24.
                        Lebedev-Laikov grids with approx.  5.0 points / Ang**2.
                        Smoothing algorithm: York/Karplus (Gamma=1.0000).
                        Polarization charges: spherical gaussians, with
                                              point-specific exponents (IZeta= 3).
                        Self-potential: point-specific (ISelfS= 7).
                        Self-field    : sphere-specific E.n sum rule (ISelfD= 2).
 Solvent              : TetraHydroFuran, Eps=   7.425700 Eps(inf)=   1.974025
 ------------------------------------------------------------------------------
 One-electron integrals computed using PRISM.
   1 Symmetry operations used in ECPInt.
 ECPInt:  NShTT=   21945 NPrTT=   61045 LenC2=   18527 LenP2D=   39203.
 LDataN:  DoStor=T MaxTD1= 6 Len=  172
 NBasis=   557 RedAO= T EigKep=  9.11D-06  NBF=   557
 NBsUse=   557 1.00D-06 EigRej= -1.00D+00 NBFU=   557
 Initial guess from the checkpoint file:  "vsa3_crest_conformers-3.chk"
 B after Tr=     0.000000   -0.000000    0.000000
         Rot=    1.000000    0.000000    0.000000    0.000000 Ang=   0.00 deg.
 Requested convergence on RMS density matrix=1.00D-08 within 128 cycles.
 Requested convergence on MAX density matrix=1.00D-06.
 Requested convergence on             energy=1.00D-06.
 No special actions if energy rises.
 Inv3:  Mode=1 IEnd=    12301875.
 Iteration    1 A*A^-1 deviation from unit magnitude is 4.77D-15 for   2017.
 Iteration    1 A*A^-1 deviation from orthogonality  is 2.73D-15 for   2017   1002.
 Iteration    1 A^-1*A deviation from unit magnitude is 4.11D-15 for   2017.
 Iteration    1 A^-1*A deviation from orthogonality  is 2.44D-15 for   2025   1037.
 Error on total polarization charges =  0.01542
 SCF Done:  E(RM062X) =  -572.492151235     A.U. after    1 cycles
            NFock=  1  Conv=0.46D-08     -V/T= 2.0053
 DoSCS=F DFT=T ScalE2(SS,OS)=  1.000000  1.000000
 Range of M.O.s used for correlation:     1   557
 NBasis=   557 NAE=    47 NBE=    47 NFC=     0 NFV=     0
 NROrb=    557 NOA=    47 NOB=    47 NVA=   510 NVB=   510

 **** Warning!!: The largest alpha MO coefficient is  0.48391005D+02

 NEqPCM:  Using equilibrium solvation (IEInf=0, Eps=   7.4257, EpsInf=   1.9740)
          Differentiating once with respect to magnetic field using GIAOs.
          Electric field/nuclear overlap derivatives assumed to be zero.
   1 Symmetry operations used in ECPInt.
 ECPInt:  NShTT=   21945 NPrTT=   61045 LenC2=   21946 LenP2D=   61045.
 LDataN:  DoStor=T MaxTD1= 7 Len=  274
 FoFJK:  IHMeth= 1 ICntrl=    6127 DoSepK=F KAlg= 0 I1Cent=           0 FoldK=F
 IRaf=         1 NMat=       1 IRICut=       1 DoRegI=T DoRafI=F ISym2E= 0 IDoP0=0 IntGTp=1.
          There are     3 degrees of freedom in the 1st order CPHF.  IDoFFX=0 NUNeed=     3.
      3 vectors produced by pass  0 Test12= 7.99D-13 3.33D-08 XBig12= 3.80D+01 1.41D+00.
 AX will form     3 AO Fock derivatives at one time.
      3 vectors produced by pass  1 Test12= 7.99D-13 3.33D-08 XBig12= 4.62D-01 2.87D-01.
      3 vectors produced by pass  2 Test12= 7.99D-13 3.33D-08 XBig12= 8.87D-03 4.11D-02.
      3 vectors produced by pass  3 Test12= 7.99D-13 3.33D-08 XBig12= 1.33D-04 5.87D-03.
      3 vectors produced by pass  4 Test12= 7.99D-13 3.33D-08 XBig12= 2.81D-06 6.21D-04.
      3 vectors produced by pass  5 Test12= 7.99D-13 3.33D-08 XBig12= 4.15D-08 7.28D-05.
      3 vectors produced by pass  6 Test12= 7.99D-13 3.33D-08 XBig12= 5.33D-10 7.74D-06.
      3 vectors produced by pass  7 Test12= 7.99D-13 3.33D-08 XBig12= 5.96D-12 4.35D-07.
      1 vectors produced by pass  8 Test12= 7.99D-13 3.33D-08 XBig12= 5.50D-14 4.82D-08.
 InvSVY:  IOpt=1 It=  1 EMax= 3.55D-15
 Solved reduced A of dimension    25 with     3 vectors.
 Calculating GIAO nuclear magnetic shielding tensors.
 SCF GIAO Magnetic shielding tensor (ppm):
      1  O    Isotropic =     8.1989   Anisotropy =   589.3353
   XX=  -120.4598   YX=    50.3496   ZX=   -10.8429
   XY=    16.7812   YY=  -255.9014   ZY=    11.2324
   XZ=    -5.6199   YZ=    -8.2964   ZZ=   400.9578
   Eigenvalues:  -263.7798  -112.7127   401.0891
      2  C    Isotropic =     1.7303   Anisotropy =   139.3935
   XX=   -75.6780   YX=     9.6296   ZX=    -2.9960
   XY=    32.7262   YY=   -13.6565   ZY=     4.1793
   XZ=    -0.8419   YZ=     3.1881   ZZ=    94.5253
   Eigenvalues:   -82.2678    -7.2006    94.6593
      3  N    Isotropic =   157.3716   Anisotropy =   130.1481
   XX=   192.6208   YX=   -64.5625   ZX=     7.2129
   XY=   -97.4331   YY=   115.5061   ZY=    -1.9690
   XZ=     3.8558   YZ=    -0.8085   ZZ=   163.9878
   Eigenvalues:    64.3248   163.6529   244.1370
      4  C    Isotropic =   161.8392   Anisotropy =    37.3239
   XX=   174.3300   YX=    22.8286   ZX=     2.6465
   XY=    19.4048   YY=   146.0608   ZY=     5.3066
   XZ=     1.4055   YZ=     7.7319   ZZ=   165.1269
   Eigenvalues:   134.0338   164.7621   186.7218
      5  C    Isotropic =    76.3365   Anisotropy =    76.6987
   XX=   124.8069   YX=   -31.0574   ZX=     0.6314
   XY=    -4.3835   YY=     7.7034   ZY=    -0.6680
   XZ=     1.4753   YZ=    -0.1636   ZZ=    96.4991
   Eigenvalues:     5.0799    96.4605   127.4690
      6  N    Isotropic =  -171.2127   Anisotropy =   667.3334
   XX=  -564.4898   YX=   -35.0774   ZX=    12.9492
   XY=   -26.5999   YY=  -222.6199   ZY=    -0.1687
   XZ=    13.1870   YZ=    -0.1933   ZZ=   273.4716
   Eigenvalues:  -567.4503  -219.8640   273.6762
      7  C    Isotropic =    64.1037   Anisotropy =    59.4281
   XX=    76.7731   YX=    53.0112   ZX=     0.4440
   XY=    42.6175   YY=    18.8409   ZY=    -0.6025
   XZ=     0.8885   YZ=    -0.6066   ZZ=    96.6971
   Eigenvalues:    -8.1039    96.6926   103.7224
      8  C    Isotropic =    14.7258   Anisotropy =   232.6641
   XX=   -77.0639   YX=    17.0891   ZX=     3.6506
   XY=    13.8519   YY=   -48.5390   ZY=    -0.3368
   XZ=     3.6978   YZ=    -0.4949   ZZ=   169.7804
   Eigenvalues:   -83.8924   -41.7654   169.8353
      9  C    Isotropic =    46.1752   Anisotropy =   176.4371
   XX=    34.4115   YX=     6.5497   ZX=     1.9221
   XY=    13.1523   YY=   -59.6564   ZY=    -0.3720
   XZ=     1.9667   YZ=    -0.2222   ZZ=   163.7706
   Eigenvalues:   -60.6781    35.4038   163.7999
     10  C    Isotropic =    36.6204   Anisotropy =   207.9405
   XX=   -48.7488   YX=   -60.0716   ZX=     3.2923
   XY=   -56.7241   YY=   -16.5889   ZY=     0.7054
   XZ=     3.2923   YZ=     0.7725   ZZ=   175.1989
   Eigenvalues:   -93.2751    27.8889   175.2474
     11  C    Isotropic =    50.3812   Anisotropy =   182.6470
   XX=   -51.8074   YX=    42.1055   ZX=     3.3590
   XY=    38.4842   YY=    30.8539   ZY=    -0.6647
   XZ=     3.2493   YZ=    -0.6180   ZZ=   172.0971
   Eigenvalues:   -68.2447    47.2424   172.1459
     12  C    Isotropic =    36.4193   Anisotropy =   207.7559
   XX=    25.4339   YX=    12.4575   ZX=     2.2440
   XY=     9.5077   YY=   -91.0660   ZY=    -0.2854
   XZ=     2.2109   YZ=    -0.2298   ZZ=   174.8900
   Eigenvalues:   -92.0932    26.4278   174.9233
     13  C    Isotropic =    45.8889   Anisotropy =   198.1089
   XX=   -23.1060   YX=   -50.3909   ZX=     2.9902
   XY=   -52.0895   YY=   -17.1405   ZY=     0.6808
   XZ=     3.2065   YZ=     0.2800   ZZ=   177.9133
   Eigenvalues:   -71.4770    31.1822   177.9615
     14  H    Isotropic =    27.6604   Anisotropy =     5.9853
   XX=    30.6590   YX=    -0.2572   ZX=     1.4051
   XY=     1.1902   YY=    31.1217   ZY=    -1.7121
   XZ=     1.2564   YZ=    -2.8149   ZZ=    21.2006
   Eigenvalues:    20.5154    30.8152    31.6506
     15  H    Isotropic =    29.2855   Anisotropy =    10.1225
   XX=    34.1163   YX=    -0.3385   ZX=    -3.6444
   XY=     0.5687   YY=    25.5055   ZY=     1.0121
   XZ=    -3.9832   YZ=     2.4442   ZZ=    28.2347
   Eigenvalues:    24.2516    27.5711    36.0338
     16  H    Isotropic =    29.3530   Anisotropy =    10.9744
   XX=    30.0987   YX=     1.9990   ZX=     4.6879
   XY=     1.6690   YY=    25.0588   ZY=     1.0999
   XZ=     4.8729   YZ=    -0.1818   ZZ=    32.9015
   Eigenvalues:    24.2544    27.1353    36.6693
     17  H    Isotropic =    27.2926   Anisotropy =     4.6397
   XX=    28.8054   YX=     2.0598   ZX=     0.1138
   XY=    -0.6979   YY=    29.9083   ZY=    -1.3015
   XZ=     0.2440   YZ=    -1.1556   ZZ=    23.1643
   Eigenvalues:    22.9325    28.5597    30.3858
     18  H    Isotropic =    24.7886   Anisotropy =     7.6900
   XX=    29.9102   YX=    -2.4385   ZX=     0.0183
   XY=     2.8474   YY=    21.3298   ZY=    -0.0763
   XZ=     0.0534   YZ=    -0.0097   ZZ=    23.1256
   Eigenvalues:    21.3239    23.1265    29.9152
     19  H    Isotropic =    24.0998   Anisotropy =     5.9349
   XX=    27.5763   YX=     3.8461   ZX=    -0.0445
   XY=    -0.6496   YY=    22.7274   ZY=    -0.0077
   XZ=    -0.0693   YZ=    -0.0768   ZZ=    21.9958
   Eigenvalues:    21.9928    22.2503    28.0564
     20  H    Isotropic =    24.2495   Anisotropy =     7.1591
   XX=    29.0163   YX=     0.7095   ZX=    -0.1017
   XY=    -0.3623   YY=    22.3041   ZY=     0.0005
   XZ=    -0.1095   YZ=    -0.0112   ZZ=    21.4280
   Eigenvalues:    21.4265    22.2996    29.0222
     21  H    Isotropic =    23.8597   Anisotropy =     5.5351
   XX=    24.4945   YX=    -2.4423   ZX=    -0.0421
   XY=    -2.3772   YY=    25.6485   ZY=     0.0341
   XZ=    -0.0422   YZ=     0.0381   ZZ=    21.4362
   Eigenvalues:    21.4356    22.5937    27.5498
     22  H    Isotropic =    24.4224   Anisotropy =     4.8750
   XX=    24.2634   YX=     1.4736   ZX=    -0.0305
   XY=     1.3002   YY=    27.1081   ZY=    -0.0181
   XZ=    -0.0363   YZ=    -0.0192   ZZ=    21.8959
   Eigenvalues:    21.8954    23.6995    27.6725
     23  H    Isotropic =    23.8042   Anisotropy =     6.0804
   XX=    27.8151   YX=     0.2939   ZX=    -0.0919
   XY=     0.6567   YY=    22.3952   ZY=    -0.0096
   XZ=    -0.0969   YZ=    -0.0110   ZZ=    21.2023
   Eigenvalues:    21.2010    22.3538    27.8578
     24  H    Isotropic =    22.7230   Anisotropy =     8.4745
   XX=    25.4692   YX=    -3.6449   ZX=    -0.0798
   XY=    -3.5263   YY=    23.9409   ZY=     0.0453
   XZ=    -0.1245   YZ=     0.0767   ZZ=    18.7587
   Eigenvalues:    18.7572    21.0391    28.3726
 End of Minotr F.D. properties file   721 does not exist.
 End of Minotr F.D. properties file   722 does not exist.
 End of Minotr F.D. properties file   788 does not exist.

 **********************************************************************

            Population analysis using the SCF Density.

 **********************************************************************

 Orbital symmetries:
       Occupied  (A) (A) (A) (A) (A) (A) (A) (A) (A) (A) (A) (A)
                 (A) (A) (A) (A) (A) (A) (A) (A) (A) (A) (A) (A)
                 (A) (A) (A) (A) (A) (A) (A) (A) (A) (A) (A) (A)
                 (A) (A) (A) (A) (A) (A) (A) (A) (A) (A) (A)
       Virtual   (A) (A) (A) (A) (A) (A) (A) (A) (A) (A) (A) (A)
                 (A) (A) (A) (A) (A) (A) (A) (A) (A) (A) (A) (A)
                 (A) (A) (A) (A) (A) (A) (A) (A) (A) (A) (A) (A)
                 (A) (A) (A) (A) (A) (A) (A) (A) (A) (A) (A) (A)
                 (A) (A) (A) (A) (A) (A) (A) (A) (A) (A) (A) (A)
                 (A) (A) (A) (A) (A) (A) (A) (A) (A) (A) (A) (A)
                 (A) (A) (A) (A) (A) (A) (A) (A) (A) (A) (A) (A)
                 (A) (A) (A) (A) (A) (A) (A) (A) (A) (A) (A) (A)
                 (A) (A) (A) (A) (A) (A) (A) (A) (A) (A) (A) (A)
                 (A) (A) (A) (A) (A) (A) (A) (A) (A) (A) (A) (A)
                 (A) (A) (A) (A) (A) (A) (A) (A) (A) (A) (A) (A)
                 (A) (A) (A) (A) (A) (A) (A) (A) (A) (A) (A) (A)
                 (A) (A) (A) (A) (A) (A) (A) (A) (A) (A) (A) (A)
                 (A) (A) (A) (A) (A) (A) (A) (A) (A) (A) (A) (A)
                 (A) (A) (A) (A) (A) (A) (A) (A) (A) (A) (A) (A)
                 (A) (A) (A) (A) (A) (A) (A) (A) (A) (A) (A) (A)
                 (A) (A) (A) (A) (A) (A) (A) (A) (A) (A) (A) (A)
                 (A) (A) (A) (A) (A) (A) (A) (A) (A) (A) (A) (A)
                 (A) (A) (A) (A) (A) (A) (A) (A) (A) (A) (A) (A)
                 (A) (A) (A) (A) (A) (A) (A) (A) (A) (A) (A) (A)
                 (A) (A) (A) (A) (A) (A) (A) (A) (A) (A) (A) (A)
                 (A) (A) (A) (A) (A) (A) (A) (A) (A) (A) (A) (A)
                 (A) (A) (A) (A) (A) (A) (A) (A) (A) (A) (A) (A)
                 (A) (A) (A) (A) (A) (A) (A) (A) (A) (A) (A) (A)
                 (A) (A) (A) (A) (A) (A) (A) (A) (A) (A) (A) (A)
                 (A) (A) (A) (A) (A) (A) (A) (A) (A) (A) (A) (A)
                 (A) (A) (A) (A) (A) (A) (A) (A) (A) (A) (A) (A)
                 (A) (A) (A) (A) (A) (A) (A) (A) (A) (A) (A) (A)
                 (A) (A) (A) (A) (A) (A) (A) (A) (A) (A) (A) (A)
                 (A) (A) (A) (A) (A) (A) (A) (A) (A) (A) (A) (A)
                 (A) (A) (A) (A) (A) (A) (A) (A) (A) (A) (A) (A)
                 (A) (A) (A) (A) (A) (A) (A) (A) (A) (A) (A) (A)
                 (A) (A) (A) (A) (A) (A) (A) (A) (A) (A) (A) (A)
                 (A) (A) (A) (A) (A) (A) (A) (A) (A) (A) (A) (A)
                 (A) (A) (A) (A) (A) (A) (A) (A) (A) (A) (A) (A)
                 (A) (A) (A) (A) (A) (A) (A) (A) (A) (A) (A) (A)
                 (A) (A) (A) (A) (A) (A) (A) (A) (A) (A) (A) (A)
                 (A) (A) (A) (A) (A) (A) (A) (A) (A) (A) (A) (A)
                 (A) (A) (A) (A) (A) (A) (A) (A) (A) (A) (A) (A)
                 (A) (A) (A) (A) (A) (A) (A) (A) (A) (A) (A) (A)
                 (A) (A) (A) (A) (A) (A) (A) (A) (A) (A) (A) (A)
                 (A) (A) (A) (A) (A) (A) (A) (A) (A) (A) (A) (A)
                 (A) (A) (A) (A) (A) (A)
 The electronic state is 1-A.
 Alpha  occ. eigenvalues --  -19.54500 -14.72293 -14.71118 -10.59167 -10.53741
 Alpha  occ. eigenvalues --  -10.52118 -10.52028 -10.51884 -10.51247 -10.51226
 Alpha  occ. eigenvalues --  -10.50742 -10.50668 -10.49596  -1.11342  -0.99077
 Alpha  occ. eigenvalues --   -0.98157  -0.92792  -0.83210  -0.81264  -0.78326
 Alpha  occ. eigenvalues --   -0.73148  -0.67094  -0.65621  -0.62109  -0.59463
 Alpha  occ. eigenvalues --   -0.55675  -0.54470  -0.52107  -0.49774  -0.49197
 Alpha  occ. eigenvalues --   -0.48179  -0.46793  -0.45679  -0.45392  -0.43595
 Alpha  occ. eigenvalues --   -0.43408  -0.42008  -0.41462  -0.38091  -0.37898
 Alpha  occ. eigenvalues --   -0.36669  -0.30082  -0.29102  -0.28514  -0.28267
 Alpha  occ. eigenvalues --   -0.27743  -0.16637
 Alpha virt. eigenvalues --    0.01974   0.04676   0.09398   0.10559   0.10813
 Alpha virt. eigenvalues --    0.12252   0.12750   0.14221   0.14995   0.15413
 Alpha virt. eigenvalues --    0.16131   0.16559   0.17308   0.17595   0.18268
 Alpha virt. eigenvalues --    0.18611   0.20246   0.20650   0.21062   0.23692
 Alpha virt. eigenvalues --    0.24300   0.25222   0.25679   0.26076   0.26629
 Alpha virt. eigenvalues --    0.27623   0.28778   0.29149   0.29611   0.30363
 Alpha virt. eigenvalues --    0.31173   0.31740   0.32303   0.34106   0.35316
 Alpha virt. eigenvalues --    0.35623   0.36211   0.37716   0.38070   0.38522
 Alpha virt. eigenvalues --    0.39118   0.39588   0.40885   0.41490   0.41859
 Alpha virt. eigenvalues --    0.43029   0.43745   0.44670   0.45070   0.45786
 Alpha virt. eigenvalues --    0.46189   0.46881   0.47005   0.47465   0.48283
 Alpha virt. eigenvalues --    0.48860   0.49555   0.50473   0.51675   0.52195
 Alpha virt. eigenvalues --    0.53075   0.53477   0.53894   0.54179   0.55746
 Alpha virt. eigenvalues --    0.56466   0.56607   0.57265   0.57932   0.58404
 Alpha virt. eigenvalues --    0.60177   0.61987   0.62776   0.63964   0.64794
 Alpha virt. eigenvalues --    0.65510   0.66254   0.67474   0.68238   0.68824
 Alpha virt. eigenvalues --    0.70462   0.70672   0.73062   0.73785   0.74164
 Alpha virt. eigenvalues --    0.74718   0.75780   0.75877   0.76149   0.77040
 Alpha virt. eigenvalues --    0.79170   0.79767   0.80860   0.81276   0.82011
 Alpha virt. eigenvalues --    0.83424   0.83448   0.85154   0.86480   0.86795
 Alpha virt. eigenvalues --    0.88734   0.89718   0.91016   0.91214   0.92859
 Alpha virt. eigenvalues --    0.94443   0.95525   0.96863   0.97087   0.98303
 Alpha virt. eigenvalues --    0.99726   1.01248   1.02119   1.02856   1.03264
 Alpha virt. eigenvalues --    1.03805   1.04560   1.04814   1.06124   1.07687
 Alpha virt. eigenvalues --    1.08416   1.09892   1.10030   1.11553   1.12407
 Alpha virt. eigenvalues --    1.13774   1.15613   1.16184   1.17161   1.19103
 Alpha virt. eigenvalues --    1.19955   1.20734   1.23063   1.24250   1.25083
 Alpha virt. eigenvalues --    1.26582   1.26813   1.27470   1.28348   1.28656
 Alpha virt. eigenvalues --    1.30062   1.31515   1.32818   1.33175   1.34356
 Alpha virt. eigenvalues --    1.35420   1.35737   1.36843   1.37754   1.38972
 Alpha virt. eigenvalues --    1.39275   1.41120   1.43073   1.43354   1.44010
 Alpha virt. eigenvalues --    1.45453   1.46202   1.47949   1.49229   1.49386
 Alpha virt. eigenvalues --    1.50865   1.51619   1.53542   1.53899   1.54344
 Alpha virt. eigenvalues --    1.56052   1.56549   1.57019   1.58999   1.59166
 Alpha virt. eigenvalues --    1.59453   1.59998   1.60763   1.61674   1.62190
 Alpha virt. eigenvalues --    1.64936   1.66018   1.66602   1.68652   1.69804
 Alpha virt. eigenvalues --    1.71582   1.73014   1.73176   1.74798   1.76597
 Alpha virt. eigenvalues --    1.77245   1.78557   1.80228   1.81064   1.83298
 Alpha virt. eigenvalues --    1.84228   1.84839   1.85421   1.86078   1.88190
 Alpha virt. eigenvalues --    1.89886   1.92537   1.94398   1.95343   1.98394
 Alpha virt. eigenvalues --    2.01862   2.02013   2.03166   2.03887   2.05816
 Alpha virt. eigenvalues --    2.06215   2.08901   2.09608   2.11081   2.13168
 Alpha virt. eigenvalues --    2.14471   2.17271   2.18722   2.23536   2.27106
 Alpha virt. eigenvalues --    2.27447   2.30009   2.32107   2.33553   2.34510
 Alpha virt. eigenvalues --    2.35651   2.39326   2.40687   2.40892   2.41716
 Alpha virt. eigenvalues --    2.44906   2.47050   2.47779   2.48649   2.51401
 Alpha virt. eigenvalues --    2.55154   2.58916   2.60317   2.60958   2.62719
 Alpha virt. eigenvalues --    2.66707   2.67335   2.68348   2.68557   2.71381
 Alpha virt. eigenvalues --    2.73071   2.73995   2.74801   2.76967   2.78087
 Alpha virt. eigenvalues --    2.78552   2.79861   2.80679   2.81008   2.81788
 Alpha virt. eigenvalues --    2.83556   2.84560   2.85171   2.85545   2.86209
 Alpha virt. eigenvalues --    2.88617   2.90785   2.91119   2.92007   2.92493
 Alpha virt. eigenvalues --    2.93600   2.94138   2.95050   2.95737   2.97094
 Alpha virt. eigenvalues --    2.97959   2.98420   2.99348   3.01230   3.01360
 Alpha virt. eigenvalues --    3.01983   3.03131   3.03616   3.04017   3.04796
 Alpha virt. eigenvalues --    3.06059   3.06895   3.08271   3.08652   3.09997
 Alpha virt. eigenvalues --    3.10618   3.11917   3.12114   3.13973   3.15039
 Alpha virt. eigenvalues --    3.15123   3.16498   3.17596   3.18825   3.18960
 Alpha virt. eigenvalues --    3.19883   3.21249   3.22013   3.23289   3.23912
 Alpha virt. eigenvalues --    3.24575   3.25845   3.27988   3.28333   3.29397
 Alpha virt. eigenvalues --    3.30501   3.31459   3.31898   3.32549   3.34161
 Alpha virt. eigenvalues --    3.35168   3.35659   3.35905   3.36560   3.37799
 Alpha virt. eigenvalues --    3.39247   3.40683   3.40935   3.41392   3.42333
 Alpha virt. eigenvalues --    3.43402   3.44879   3.45154   3.45785   3.46921
 Alpha virt. eigenvalues --    3.48653   3.49898   3.50332   3.51782   3.52027
 Alpha virt. eigenvalues --    3.52641   3.54021   3.56510   3.56841   3.57661
 Alpha virt. eigenvalues --    3.58062   3.59047   3.60459   3.61845   3.65018
 Alpha virt. eigenvalues --    3.65516   3.66618   3.67576   3.70264   3.71130
 Alpha virt. eigenvalues --    3.71696   3.73853   3.74523   3.74760   3.75746
 Alpha virt. eigenvalues --    3.76445   3.77827   3.78301   3.79338   3.80822
 Alpha virt. eigenvalues --    3.81863   3.82061   3.82390   3.82454   3.83797
 Alpha virt. eigenvalues --    3.86556   3.87052   3.87584   3.88657   3.91300
 Alpha virt. eigenvalues --    3.92363   3.93018   3.93755   3.94502   3.95473
 Alpha virt. eigenvalues --    3.97076   3.97575   3.99002   3.99912   4.00145
 Alpha virt. eigenvalues --    4.01991   4.04069   4.04431   4.05262   4.05856
 Alpha virt. eigenvalues --    4.06880   4.09683   4.11783   4.12803   4.13892
 Alpha virt. eigenvalues --    4.15115   4.16187   4.18667   4.18864   4.19448
 Alpha virt. eigenvalues --    4.19722   4.20982   4.22363   4.23504   4.23913
 Alpha virt. eigenvalues --    4.24539   4.25535   4.26666   4.28167   4.28424
 Alpha virt. eigenvalues --    4.29189   4.30478   4.32400   4.33480   4.34865
 Alpha virt. eigenvalues --    4.38843   4.39294   4.42814   4.46984   4.48803
 Alpha virt. eigenvalues --    4.49564   4.53698   4.54387   4.55625   4.57354
 Alpha virt. eigenvalues --    4.60814   4.61049   4.61677   4.63306   4.65103
 Alpha virt. eigenvalues --    4.68280   4.68774   4.69418   4.71658   4.72248
 Alpha virt. eigenvalues --    4.73502   4.74437   4.77330   4.80147   4.81411
 Alpha virt. eigenvalues --    4.82367   4.86411   4.88092   4.88499   4.91341
 Alpha virt. eigenvalues --    4.92554   4.93063   4.95571   4.95865   4.99161
 Alpha virt. eigenvalues --    5.00721   5.01719   5.02261   5.03066   5.04710
 Alpha virt. eigenvalues --    5.07289   5.10930   5.12959   5.13588   5.14535
 Alpha virt. eigenvalues --    5.16502   5.17696   5.22833   5.25075   5.25714
 Alpha virt. eigenvalues --    5.27472   5.27669   5.29016   5.29574   5.30568
 Alpha virt. eigenvalues --    5.30990   5.32176   5.36116   5.36415   5.37574
 Alpha virt. eigenvalues --    5.38290   5.39350   5.39668   5.41778   5.45653
 Alpha virt. eigenvalues --    5.46662   5.50650   5.53288   5.54970   5.56072
 Alpha virt. eigenvalues --    5.60288   5.61280   5.65215   5.66206   5.66736
 Alpha virt. eigenvalues --    5.72572   5.77137   5.77745   5.86212   5.87284
 Alpha virt. eigenvalues --    5.95140   5.98883   6.01643   6.08198   6.12568
 Alpha virt. eigenvalues --    6.15691   6.20700   6.35196   6.43229   6.46694
 Alpha virt. eigenvalues --    6.52009   6.66336   6.71509   6.87014   6.94195
 Alpha virt. eigenvalues --    7.13323   7.23466  22.84065  23.20314  23.26821
 Alpha virt. eigenvalues --   23.28260  23.32752  23.38264  23.48751  23.53684
 Alpha virt. eigenvalues --   23.70828  24.12228  32.91026  33.02200  44.18077
          Condensed to atoms (all electrons):
               1          2          3          4          5          6
     1  O    8.063666   0.708723  -0.150131  -0.020220  -0.118608  -0.006153
     2  C    0.708723   4.568028   0.295779  -0.056287   0.392685  -0.068255
     3  N   -0.150131   0.295779   6.789231   0.261397  -0.145769   0.005297
     4  C   -0.020220  -0.056287   0.261397   4.880841   0.002449  -0.000388
     5  C   -0.118608   0.392685  -0.145769   0.002449   5.359162   0.523225
     6  N   -0.006153  -0.068255   0.005297  -0.000388   0.523225   6.359975
     7  C    0.002802  -0.003952   0.000880   0.000083  -0.210323   0.634137
     8  C   -0.001370   0.000994  -0.000190  -0.000004   0.013220  -0.176483
     9  C    0.000001  -0.000017  -0.000002   0.000000  -0.000272   0.003834
    10  C   -0.000003  -0.000015  -0.000000   0.000000   0.000021  -0.000277
    11  C    0.000005   0.000015   0.000000  -0.000000  -0.000065   0.000731
    12  C   -0.000026  -0.000070  -0.000001   0.000000   0.000117  -0.001407
    13  C   -0.000889  -0.000774   0.000050  -0.000000   0.000459   0.034228
    14  H    0.006297  -0.045321   0.374224  -0.040283   0.000407  -0.000338
    15  H    0.000756   0.003077  -0.041963   0.412220  -0.000440   0.000022
    16  H    0.000301   0.006221  -0.057480   0.415116   0.003167   0.000004
    17  H    0.031862  -0.019223  -0.039050   0.402350   0.005133  -0.000133
    18  H    0.003985  -0.078360   0.011219   0.001151   0.425337  -0.057208
    19  H    0.000049  -0.005597   0.000434   0.000005  -0.011874  -0.063468
    20  H    0.000000  -0.000005   0.000000   0.000000  -0.000025  -0.000349
    21  H   -0.000000  -0.000000  -0.000000   0.000000  -0.000001   0.000011
    22  H    0.000000   0.000000   0.000000  -0.000000   0.000000   0.000001
    23  H   -0.000005  -0.000007  -0.000000  -0.000000   0.000013  -0.000193
    24  H    0.003631   0.001326   0.000162   0.000003  -0.003203   0.033036
               7          8          9         10         11         12
     1  O    0.002802  -0.001370   0.000001  -0.000003   0.000005  -0.000026
     2  C   -0.003952   0.000994  -0.000017  -0.000015   0.000015  -0.000070
     3  N    0.000880  -0.000190  -0.000002  -0.000000   0.000000  -0.000001
     4  C    0.000083  -0.000004   0.000000   0.000000  -0.000000   0.000000
     5  C   -0.210323   0.013220  -0.000272   0.000021  -0.000065   0.000117
     6  N    0.634137  -0.176483   0.003834  -0.000277   0.000731  -0.001407
     7  C    5.054527   0.383147  -0.100603   0.003453   0.000890  -0.000215
     8  C    0.383147   5.634546   0.436344   0.011842  -0.141990   0.099569
     9  C   -0.100603   0.436344   5.040592   0.517575  -0.037057  -0.086745
    10  C    0.003453   0.011842   0.517575   4.931248   0.469772   0.000493
    11  C    0.000890  -0.141990  -0.037057   0.469772   5.090717   0.387085
    12  C   -0.000215   0.099569  -0.086745   0.000493   0.387085   5.041821
    13  C   -0.063245  -0.109840   0.048597  -0.142382   0.068112   0.345692
    14  H    0.000049  -0.000018  -0.000001   0.000000  -0.000000   0.000000
    15  H   -0.000001  -0.000000  -0.000000   0.000000  -0.000000   0.000000
    16  H   -0.000016   0.000001   0.000000   0.000000  -0.000000   0.000000
    17  H   -0.000014   0.000006   0.000000   0.000000  -0.000000   0.000000
    18  H   -0.005270  -0.006558  -0.000291  -0.000048   0.000020  -0.000056
    19  H    0.417599  -0.100171  -0.010019  -0.003832   0.001545  -0.003259
    20  H   -0.002944  -0.032839   0.401774  -0.026071   0.004848  -0.002639
    21  H   -0.000178   0.005513  -0.030738   0.416659  -0.029515   0.005153
    22  H    0.000149  -0.000798   0.003917  -0.028310   0.421824  -0.031402
    23  H   -0.000564   0.013944  -0.001027   0.005182  -0.038820   0.419746
    24  H   -0.000747  -0.105143   0.009292  -0.005289   0.015224  -0.036141
              13         14         15         16         17         18
     1  O   -0.000889   0.006297   0.000756   0.000301   0.031862   0.003985
     2  C   -0.000774  -0.045321   0.003077   0.006221  -0.019223  -0.078360
     3  N    0.000050   0.374224  -0.041963  -0.057480  -0.039050   0.011219
     4  C   -0.000000  -0.040283   0.412220   0.415116   0.402350   0.001151
     5  C    0.000459   0.000407  -0.000440   0.003167   0.005133   0.425337
     6  N    0.034228  -0.000338   0.000022   0.000004  -0.000133  -0.057208
     7  C   -0.063245   0.000049  -0.000001  -0.000016  -0.000014  -0.005270
     8  C   -0.109840  -0.000018  -0.000000   0.000001   0.000006  -0.006558
     9  C    0.048597  -0.000001  -0.000000   0.000000   0.000000  -0.000291
    10  C   -0.142382   0.000000   0.000000   0.000000   0.000000  -0.000048
    11  C    0.068112  -0.000000  -0.000000  -0.000000  -0.000000   0.000020
    12  C    0.345692   0.000000   0.000000   0.000000   0.000000  -0.000056
    13  C    5.585435   0.000003   0.000000   0.000000   0.000001   0.002723
    14  H    0.000003   0.536706  -0.001880  -0.007298   0.008162   0.003581
    15  H    0.000000  -0.001880   0.583286  -0.046870  -0.022277  -0.000133
    16  H    0.000000  -0.007298  -0.046870   0.604053  -0.029903   0.000147
    17  H    0.000001   0.008162  -0.022277  -0.029903   0.531259  -0.000454
    18  H    0.002723   0.003581  -0.000133   0.000147  -0.000454   0.642561
    19  H    0.046954   0.000092   0.000000  -0.000001  -0.000003   0.026633
    20  H    0.015695   0.000000  -0.000000   0.000000  -0.000000   0.000110
    21  H   -0.001827   0.000000  -0.000000  -0.000000   0.000000  -0.000000
    22  H    0.004724  -0.000000  -0.000000  -0.000000  -0.000000   0.000000
    23  H   -0.033974   0.000000  -0.000000   0.000000   0.000000  -0.000001
    24  H    0.450520  -0.000004  -0.000000  -0.000000  -0.000010   0.000636
              19         20         21         22         23         24
     1  O    0.000049   0.000000  -0.000000   0.000000  -0.000005   0.003631
     2  C   -0.005597  -0.000005  -0.000000   0.000000  -0.000007   0.001326
     3  N    0.000434   0.000000  -0.000000   0.000000  -0.000000   0.000162
     4  C    0.000005   0.000000   0.000000  -0.000000  -0.000000   0.000003
     5  C   -0.011874  -0.000025  -0.000001   0.000000   0.000013  -0.003203
     6  N   -0.063468  -0.000349   0.000011   0.000001  -0.000193   0.033036
     7  C    0.417599  -0.002944  -0.000178   0.000149  -0.000564  -0.000747
     8  C   -0.100171  -0.032839   0.005513  -0.000798   0.013944  -0.105143
     9  C   -0.010019   0.401774  -0.030738   0.003917  -0.001027   0.009292
    10  C   -0.003832  -0.026071   0.416659  -0.028310   0.005182  -0.005289
    11  C    0.001545   0.004848  -0.029515   0.421824  -0.038820   0.015224
    12  C   -0.003259  -0.002639   0.005153  -0.031402   0.419746  -0.036141
    13  C    0.046954   0.015695  -0.001827   0.004724  -0.033974   0.450520
    14  H    0.000092   0.000000   0.000000  -0.000000   0.000000  -0.000004
    15  H    0.000000  -0.000000  -0.000000  -0.000000  -0.000000  -0.000000
    16  H   -0.000001   0.000000  -0.000000  -0.000000   0.000000  -0.000000
    17  H   -0.000003  -0.000000   0.000000  -0.000000   0.000000  -0.000010
    18  H    0.026633   0.000110  -0.000000   0.000000  -0.000001   0.000636
    19  H    0.674615   0.009866  -0.000051   0.000004  -0.000021   0.003037
    20  H    0.009866   0.521692  -0.003348  -0.000282   0.000054  -0.000021
    21  H   -0.000051  -0.003348   0.511129  -0.002641  -0.000288   0.000031
    22  H    0.000004  -0.000282  -0.002641   0.501694  -0.002760  -0.000136
    23  H   -0.000021   0.000054  -0.000288  -0.002760   0.513479  -0.006733
    24  H    0.003037  -0.000021   0.000031  -0.000136  -0.006733   0.502827
 Mulliken charges:
               1
     1  O   -0.524676
     2  C    0.301037
     3  N   -0.304087
     4  C   -0.258433
     5  C   -0.234814
     6  N   -0.219850
     7  C   -0.109643
     8  C    0.076277
     9  C   -0.195155
    10  C   -0.150018
    11  C   -0.213343
    12  C   -0.137715
    13  C   -0.250262
    14  H    0.165621
    15  H    0.114202
    16  H    0.112557
    17  H    0.132295
    18  H    0.030275
    19  H    0.017462
    20  H    0.114485
    21  H    0.130090
    22  H    0.134018
    23  H    0.131975
    24  H    0.137703
 Sum of Mulliken charges =  -1.00000
 Mulliken charges with hydrogens summed into heavy atoms:
               1
     1  O   -0.524676
     2  C    0.301037
     3  N   -0.138466
     4  C    0.100622
     5  C   -0.204539
     6  N   -0.219850
     7  C   -0.092181
     8  C    0.076277
     9  C   -0.080670
    10  C   -0.019928
    11  C   -0.079325
    12  C   -0.005740
    13  C   -0.112560
 Electronic spatial extent (au):  <R**2>=           4219.0066
 Charge=             -1.0000 electrons
 Dipole moment (field-independent basis, Debye):
    X=             -1.6276    Y=             -3.9385    Z=              0.8119  Tot=              4.3383
 Quadrupole moment (field-independent basis, Debye-Ang):
   XX=            -98.7786   YY=            -81.9309   ZZ=            -86.5597
   XY=            -11.5693   XZ=              2.9735   YZ=             -0.3600
 Traceless Quadrupole moment (field-independent basis, Debye-Ang):
   XX=             -9.6889   YY=              7.1589   ZZ=              2.5300
   XY=            -11.5693   XZ=              2.9735   YZ=             -0.3600
 Octapole moment (field-independent basis, Debye-Ang**2):
  XXX=             42.7388  YYY=             -8.9592  ZZZ=              0.7035  XYY=             -8.5518
  XXY=            -37.3594  XXZ=             11.7327  XZZ=             19.4082  YZZ=              2.6122
  YYZ=              1.2779  XYZ=             -1.8485
 Hexadecapole moment (field-independent basis, Debye-Ang**3):
 XXXX=          -5181.9356 YYYY=           -524.9032 ZZZZ=           -110.4896 XXXY=           -100.6086
 XXXZ=             37.6125 YYYX=            -41.7842 YYYZ=             -1.3055 ZZZX=              5.5014
 ZZZY=             -1.2541 XXYY=           -957.0387 XXZZ=           -971.2042 YYZZ=           -119.7602
 XXYZ=             -8.2596 YYXZ=              3.8847 ZZXY=              6.5500
 N-N= 6.873500159247D+02 E-N=-2.722467511703D+03  KE= 5.694549685533D+02
 Unable to Open any file for archive entry.
 1\1\GINC-NOTCH059\SP\RM062X\def2TZVPP\C10H11N2O1(1-)\U6067110\31-Jan-2
 026\0\\#N Guess=Read Geom=Check Integral(Ultrafine) Density NMR M062X 
 EmpiricalDispersion=GD3 def2TZVPP SCRF(IEFPCM,solvent=THF)\\vsa3_crest
 _conformers-3\\-1,1\O,0,2.8739797003,1.430255528,0.0091930968\C,0,2.90
 03013729,0.2060711243,-0.0411626118\N,0,4.1419642129,-0.4597503371,-0.
 0842953188\C,0,5.354910531,0.2484818652,0.1975141181\C,0,1.7714244688,
 -0.6979861891,-0.0850097185\N,0,0.5307235382,-0.2540027154,-0.04913992
 86\C,0,-0.5264652852,-1.0265056677,-0.0837799377\C,0,-1.8628801203,-0.
 4878843525,-0.0382829569\C,0,-3.0008592553,-1.3281355509,-0.0757066453
 \C,0,-4.2916816272,-0.8104371418,-0.0317191323\C,0,-4.5079995745,0.566
 8611388,0.05147844\C,0,-3.391426247,1.4147281036,0.0894656295\C,0,-2.1
 01522883,0.9081965026,0.046148417\H,0,4.116876321,-1.4528162782,0.1014
 011689\H,0,6.1780202905,-0.0595708108,-0.4699904759\H,0,5.7064236156,0
 .1349049148,1.2423497564\H,0,5.1431395405,1.3126421232,0.0320931976\H,
 0,1.978726033,-1.7833039222,-0.1555861112\H,0,-0.4264918337,-2.1274616
 873,-0.1492075714\H,0,-2.8507407503,-2.40972176,-0.1409428262\H,0,-5.1
 451245801,-1.4939357829,-0.0630514963\H,0,-5.5207394239,0.9730856146,0
 .085794824\H,0,-3.5375130398,2.4967615906,0.1543343402\H,0,-1.22739500
 45,1.5609336903,0.0750117427\\Version=ES64L-G16RevC.01\State=1-A\HF=-5
 72.4921512\RMSD=4.611e-09\Dipole=-0.6119133,-1.5773492,0.225154\Quadru
 pole=-6.8883067,5.0083864,1.8799203,-8.9460625,1.6582605,-0.0821031\PG
 =C01 [X(C10H11N2O1)]\\@
 The archive entry for this job was punched.


 WERE I TO AWAIT PERFECTION, MY BOOK WOULD NEVER BE FINISHED.
                                    -- HISTORY OF CHINESE WRITING

                                       TAI T'UNG, 13TH CENTURY
 Job cpu time:       0 days  0 hours 56 minutes 19.8 seconds.
 Elapsed time:       0 days  0 hours  2 minutes  0.2 seconds.
 File lengths (MBytes):  RWF=    260 Int=      0 D2E=      0 Chk=     29 Scr=      2
 Normal termination of Gaussian 16 at Sat Jan 31 07:04:56 2026.
