 Entering Gaussian System, Link 0=g16
 Input=vsa2_crest_conformers-1.com
 Output=vsa2_crest_conformers-1.log
 Initial command:
 /uufs/chpc.utah.edu/sys/installdir/gaussian16/C01/AVX/g16/l1.exe "/scratch/general/vast/u6067110/GAUSSSCRDIR/10754890-notchpeak.peaks/Gau-996273.inp" -scrdir="/scratch/general/vast/u6067110/GAUSSSCRDIR/10754890-notchpeak.peaks/"
 Entering Link 1 = /uufs/chpc.utah.edu/sys/installdir/gaussian16/C01/AVX/g16/l1.exe PID=    996274.
  
 Copyright (c) 1988-2019, Gaussian, Inc.  All Rights Reserved.
  
 This is part of the Gaussian(R) 16 program.  It is based on
 the Gaussian(R) 09 system (copyright 2009, Gaussian, Inc.),
 the Gaussian(R) 03 system (copyright 2003, Gaussian, Inc.),
 the Gaussian(R) 98 system (copyright 1998, Gaussian, Inc.),
 the Gaussian(R) 94 system (copyright 1995, Gaussian, Inc.),
 the Gaussian 92(TM) system (copyright 1992, Gaussian, Inc.),
 the Gaussian 90(TM) system (copyright 1990, Gaussian, Inc.),
 the Gaussian 88(TM) system (copyright 1988, Gaussian, Inc.),
 the Gaussian 86(TM) system (copyright 1986, Carnegie Mellon
 University), and the Gaussian 82(TM) system (copyright 1983,
 Carnegie Mellon University). Gaussian is a federally registered
 trademark of Gaussian, Inc.
  
 This software contains proprietary and confidential information,
 including trade secrets, belonging to Gaussian, Inc.
  
 This software is provided under written license and may be
 used, copied, transmitted, or stored only in accord with that
 written license.
  
 The following legend is applicable only to US Government
 contracts under FAR:
  
                    RESTRICTED RIGHTS LEGEND
  
 Use, reproduction and disclosure by the US Government is
 subject to restrictions as set forth in subparagraphs (a)
 and (c) of the Commercial Computer Software - Restricted
 Rights clause in FAR 52.227-19.
  
 Gaussian, Inc.
 340 Quinnipiac St., Bldg. 40, Wallingford CT 06492
  
  
 ---------------------------------------------------------------
 Warning -- This program may not be used in any manner that
 competes with the business of Gaussian, Inc. or will provide
 assistance to any competitor of Gaussian, Inc.  The licensee
 of this program is prohibited from giving any competitor of
 Gaussian, Inc. access to this program.  By using this program,
 the user acknowledges that Gaussian, Inc. is engaged in the
 business of creating and licensing software in the field of
 computational chemistry and represents and warrants to the
 licensee that it is not a competitor of Gaussian, Inc. and that
 it will not use this program in any manner prohibited above.
 ---------------------------------------------------------------
  

 Cite this work as:
 Gaussian 16, Revision C.01,
 M. J. Frisch, G. W. Trucks, H. B. Schlegel, G. E. Scuseria, 
 M. A. Robb, J. R. Cheeseman, G. Scalmani, V. Barone, 
 G. A. Petersson, H. Nakatsuji, X. Li, M. Caricato, A. V. Marenich, 
 J. Bloino, B. G. Janesko, R. Gomperts, B. Mennucci, H. P. Hratchian, 
 J. V. Ortiz, A. F. Izmaylov, J. L. Sonnenberg, D. Williams-Young, 
 F. Ding, F. Lipparini, F. Egidi, J. Goings, B. Peng, A. Petrone, 
 T. Henderson, D. Ranasinghe, V. G. Zakrzewski, J. Gao, N. Rega, 
 G. Zheng, W. Liang, M. Hada, M. Ehara, K. Toyota, R. Fukuda, 
 J. Hasegawa, M. Ishida, T. Nakajima, Y. Honda, O. Kitao, H. Nakai, 
 T. Vreven, K. Throssell, J. A. Montgomery, Jr., J. E. Peralta, 
 F. Ogliaro, M. J. Bearpark, J. J. Heyd, E. N. Brothers, K. N. Kudin, 
 V. N. Staroverov, T. A. Keith, R. Kobayashi, J. Normand, 
 K. Raghavachari, A. P. Rendell, J. C. Burant, S. S. Iyengar, 
 J. Tomasi, M. Cossi, J. M. Millam, M. Klene, C. Adamo, R. Cammi, 
 J. W. Ochterski, R. L. Martin, K. Morokuma, O. Farkas, 
 J. B. Foresman, and D. J. Fox, Gaussian, Inc., Wallingford CT, 2019.
 
 ******************************************
 Gaussian 16:  ES64L-G16RevC.01  3-Jul-2019
                31-Jan-2026 
 ******************************************
 %NProcShared=32
 Will use up to   32 processors via shared memory.
 %Mem=48GB
 %chk=vsa2_crest_conformers-1.chk
 ----------------------------------------------------------------------
 #N OPT FREQ=NORAMAN Integral(Ultrafine) M062X EmpiricalDispersion=GD3 
 def2SVP
 ----------------------------------------------------------------------
 1/18=20,19=15,26=4,38=1/1,3;
 2/9=110,12=2,17=6,18=5,40=1/2;
 3/5=43,7=101,11=2,25=1,30=1,71=1,74=-55,75=-5,124=31/1,2,3;
 4//1;
 5/5=2,38=5/2;
 6/7=2,8=2,9=2,10=2,28=1/1;
 7//1,2,3,16;
 1/18=20,19=15,26=4/3(2);
 2/9=110/2;
 99//99;
 2/9=110/2;
 3/5=43,7=101,11=2,25=1,30=1,71=1,74=-55,75=-5,124=31/1,2,3;
 4/5=5,16=3,69=1/1;
 5/5=2,38=5/2;
 7//1,2,3,16;
 1/18=20,19=15,26=4/3(-5);
 2/9=110/2;
 6/7=2,8=2,9=2,10=2,19=2,28=1/1;
 99/9=1/99;
 -----------------------
 vsa2_crest_conformers-1
 -----------------------
 Symbolic Z-matrix:
 Charge = -1 Multiplicity = 1
 C                     2.3832   -0.42047  -0.00088 
 C                     1.1617   -1.11487  -0.00184 
 N                     0.00382  -0.48415  -0.00269 
 C                    -1.13711  -1.12006  -0.00268 
 C                    -2.38432  -0.4397   -0.00146 
 C                    -2.46167   0.9667   -0.00081 
 C                    -3.67612   1.61188   0.00139 
 C                    -4.86383   0.88903   0.00296 
 C                    -4.81027  -0.49782   0.00208 
 C                    -3.59808  -1.15193  -0.00014 
 N                     3.52727  -1.15222   0.00259 
 C                     4.67903  -0.50821   0.00414 
 C                     4.81949   0.86738   0.00216 
 C                     3.64787   1.63402  -0.00185 
 C                     2.43701   0.9996   -0.00332 
 H                     1.20595  -2.21683  -0.00093 
 H                    -1.16303  -2.22697  -0.00253 
 H                    -1.53445   1.52059  -0.0019 
 H                    -3.70817   2.69436   0.00194 
 H                    -5.81649   1.40016   0.00484 
 H                    -5.72878  -1.07181   0.0032 
 H                    -3.56536  -2.23513  -0.0007 
 H                     5.55657  -1.15135   0.00712 
 H                     5.79597   1.32927   0.00357 
 H                     3.70581   2.71635  -0.0038 
 H                     1.50164   1.53767  -0.00643 
 

 GradGradGradGradGradGradGradGradGradGradGradGradGradGradGradGradGradGrad
 Berny optimization.
 Initialization pass.
                           ----------------------------
                           !    Initial Parameters    !
                           ! (Angstroms and Degrees)  !
 --------------------------                            --------------------------
 ! Name  Definition              Value          Derivative Info.                !
 --------------------------------------------------------------------------------
 ! R1    R(1,2)                  1.4051         estimate D2E/DX2                !
 ! R2    R(1,11)                 1.3581         estimate D2E/DX2                !
 ! R3    R(1,15)                 1.4211         estimate D2E/DX2                !
 ! R4    R(2,3)                  1.3185         estimate D2E/DX2                !
 ! R5    R(2,16)                 1.1028         estimate D2E/DX2                !
 ! R6    R(3,4)                  1.3062         estimate D2E/DX2                !
 ! R7    R(4,5)                  1.4207         estimate D2E/DX2                !
 ! R8    R(4,17)                 1.1072         estimate D2E/DX2                !
 ! R9    R(5,6)                  1.4085         estimate D2E/DX2                !
 ! R10   R(5,10)                 1.4073         estimate D2E/DX2                !
 ! R11   R(6,7)                  1.3752         estimate D2E/DX2                !
 ! R12   R(6,18)                 1.0801         estimate D2E/DX2                !
 ! R13   R(7,8)                  1.3904         estimate D2E/DX2                !
 ! R14   R(7,19)                 1.083          estimate D2E/DX2                !
 ! R15   R(8,9)                  1.3879         estimate D2E/DX2                !
 ! R16   R(8,20)                 1.0811         estimate D2E/DX2                !
 ! R17   R(9,10)                 1.3774         estimate D2E/DX2                !
 ! R18   R(9,21)                 1.0831         estimate D2E/DX2                !
 ! R19   R(10,22)                1.0837         estimate D2E/DX2                !
 ! R20   R(11,12)                1.3196         estimate D2E/DX2                !
 ! R21   R(12,13)                1.3827         estimate D2E/DX2                !
 ! R22   R(12,23)                1.088          estimate D2E/DX2                !
 ! R23   R(13,14)                1.4002         estimate D2E/DX2                !
 ! R24   R(13,24)                1.0802         estimate D2E/DX2                !
 ! R25   R(14,15)                1.367          estimate D2E/DX2                !
 ! R26   R(14,25)                1.0839         estimate D2E/DX2                !
 ! R27   R(15,26)                1.0791         estimate D2E/DX2                !
 ! A1    A(2,1,11)             117.7795         estimate D2E/DX2                !
 ! A2    A(2,1,15)             121.7873         estimate D2E/DX2                !
 ! A3    A(11,1,15)            120.4332         estimate D2E/DX2                !
 ! A4    A(1,2,3)              121.8046         estimate D2E/DX2                !
 ! A5    A(1,2,16)             117.3179         estimate D2E/DX2                !
 ! A6    A(3,2,16)             120.8775         estimate D2E/DX2                !
 ! A7    A(2,3,4)              122.2884         estimate D2E/DX2                !
 ! A8    A(3,4,5)              122.2537         estimate D2E/DX2                !
 ! A9    A(3,4,17)             120.475          estimate D2E/DX2                !
 ! A10   A(5,4,17)             117.2713         estimate D2E/DX2                !
 ! A11   A(4,5,6)              121.7607         estimate D2E/DX2                !
 ! A12   A(4,5,10)             120.9831         estimate D2E/DX2                !
 ! A13   A(6,5,10)             117.2562         estimate D2E/DX2                !
 ! A14   A(5,6,7)              121.1276         estimate D2E/DX2                !
 ! A15   A(5,6,18)             117.7046         estimate D2E/DX2                !
 ! A16   A(7,6,18)             121.1678         estimate D2E/DX2                !
 ! A17   A(6,7,8)              120.6954         estimate D2E/DX2                !
 ! A18   A(6,7,19)             119.6755         estimate D2E/DX2                !
 ! A19   A(8,7,19)             119.6291         estimate D2E/DX2                !
 ! A20   A(7,8,9)              119.1133         estimate D2E/DX2                !
 ! A21   A(7,8,20)             120.4602         estimate D2E/DX2                !
 ! A22   A(9,8,20)             120.4265         estimate D2E/DX2                !
 ! A23   A(8,9,10)             120.5634         estimate D2E/DX2                !
 ! A24   A(8,9,21)             119.7901         estimate D2E/DX2                !
 ! A25   A(10,9,21)            119.6465         estimate D2E/DX2                !
 ! A26   A(5,10,9)             121.244          estimate D2E/DX2                !
 ! A27   A(5,10,22)            118.674          estimate D2E/DX2                !
 ! A28   A(9,10,22)            120.082          estimate D2E/DX2                !
 ! A29   A(1,11,12)            118.1851         estimate D2E/DX2                !
 ! A30   A(11,12,13)           125.0419         estimate D2E/DX2                !
 ! A31   A(11,12,23)           114.5509         estimate D2E/DX2                !
 ! A32   A(13,12,23)           120.4072         estimate D2E/DX2                !
 ! A33   A(12,13,14)           117.3683         estimate D2E/DX2                !
 ! A34   A(12,13,24)           121.1449         estimate D2E/DX2                !
 ! A35   A(14,13,24)           121.4868         estimate D2E/DX2                !
 ! A36   A(13,14,15)           119.1497         estimate D2E/DX2                !
 ! A37   A(13,14,25)           120.1343         estimate D2E/DX2                !
 ! A38   A(15,14,25)           120.716          estimate D2E/DX2                !
 ! A39   A(1,15,14)            119.8218         estimate D2E/DX2                !
 ! A40   A(1,15,26)            117.7397         estimate D2E/DX2                !
 ! A41   A(14,15,26)           122.4385         estimate D2E/DX2                !
 ! D1    D(11,1,2,3)           179.8743         estimate D2E/DX2                !
 ! D2    D(11,1,2,16)           -0.0714         estimate D2E/DX2                !
 ! D3    D(15,1,2,3)            -0.1208         estimate D2E/DX2                !
 ! D4    D(15,1,2,16)          179.9334         estimate D2E/DX2                !
 ! D5    D(2,1,11,12)         -179.9692         estimate D2E/DX2                !
 ! D6    D(15,1,11,12)           0.026          estimate D2E/DX2                !
 ! D7    D(2,1,15,14)          179.9796         estimate D2E/DX2                !
 ! D8    D(2,1,15,26)           -0.0278         estimate D2E/DX2                !
 ! D9    D(11,1,15,14)          -0.0154         estimate D2E/DX2                !
 ! D10   D(11,1,15,26)         179.9772         estimate D2E/DX2                !
 ! D11   D(1,2,3,4)           -179.953          estimate D2E/DX2                !
 ! D12   D(16,2,3,4)            -0.0091         estimate D2E/DX2                !
 ! D13   D(2,3,4,5)            179.8981         estimate D2E/DX2                !
 ! D14   D(2,3,4,17)            -0.0352         estimate D2E/DX2                !
 ! D15   D(3,4,5,6)              0.0299         estimate D2E/DX2                !
 ! D16   D(3,4,5,10)          -179.9363         estimate D2E/DX2                !
 ! D17   D(17,4,5,6)           179.9653         estimate D2E/DX2                !
 ! D18   D(17,4,5,10)           -0.001          estimate D2E/DX2                !
 ! D19   D(4,5,6,7)           -179.9504         estimate D2E/DX2                !
 ! D20   D(4,5,6,18)             0.0377         estimate D2E/DX2                !
 ! D21   D(10,5,6,7)             0.017          estimate D2E/DX2                !
 ! D22   D(10,5,6,18)         -179.9949         estimate D2E/DX2                !
 ! D23   D(4,5,10,9)           179.9497         estimate D2E/DX2                !
 ! D24   D(4,5,10,22)           -0.038          estimate D2E/DX2                !
 ! D25   D(6,5,10,9)            -0.018          estimate D2E/DX2                !
 ! D26   D(6,5,10,22)          179.9943         estimate D2E/DX2                !
 ! D27   D(5,6,7,8)             -0.0036         estimate D2E/DX2                !
 ! D28   D(5,6,7,19)           179.9943         estimate D2E/DX2                !
 ! D29   D(18,6,7,8)          -179.9913         estimate D2E/DX2                !
 ! D30   D(18,6,7,19)            0.0066         estimate D2E/DX2                !
 ! D31   D(6,7,8,9)             -0.0094         estimate D2E/DX2                !
 ! D32   D(6,7,8,20)           179.9906         estimate D2E/DX2                !
 ! D33   D(19,7,8,9)           179.9927         estimate D2E/DX2                !
 ! D34   D(19,7,8,20)           -0.0073         estimate D2E/DX2                !
 ! D35   D(7,8,9,10)             0.0085         estimate D2E/DX2                !
 ! D36   D(7,8,9,21)          -179.9948         estimate D2E/DX2                !
 ! D37   D(20,8,9,10)         -179.9916         estimate D2E/DX2                !
 ! D38   D(20,8,9,21)            0.0051         estimate D2E/DX2                !
 ! D39   D(8,9,10,5)             0.0055         estimate D2E/DX2                !
 ! D40   D(8,9,10,22)          179.9931         estimate D2E/DX2                !
 ! D41   D(21,9,10,5)         -179.9912         estimate D2E/DX2                !
 ! D42   D(21,9,10,22)          -0.0037         estimate D2E/DX2                !
 ! D43   D(1,11,12,13)          -0.0174         estimate D2E/DX2                !
 ! D44   D(1,11,12,23)         179.9882         estimate D2E/DX2                !
 ! D45   D(11,12,13,14)         -0.0026         estimate D2E/DX2                !
 ! D46   D(11,12,13,24)       -179.9972         estimate D2E/DX2                !
 ! D47   D(23,12,13,14)        179.9915         estimate D2E/DX2                !
 ! D48   D(23,12,13,24)         -0.0031         estimate D2E/DX2                !
 ! D49   D(12,13,14,15)          0.0135         estimate D2E/DX2                !
 ! D50   D(12,13,14,25)       -179.9835         estimate D2E/DX2                !
 ! D51   D(24,13,14,15)       -179.9918         estimate D2E/DX2                !
 ! D52   D(24,13,14,25)          0.0111         estimate D2E/DX2                !
 ! D53   D(13,14,15,1)          -0.0048         estimate D2E/DX2                !
 ! D54   D(13,14,15,26)       -179.997          estimate D2E/DX2                !
 ! D55   D(25,14,15,1)         179.9922         estimate D2E/DX2                !
 ! D56   D(25,14,15,26)          0.0            estimate D2E/DX2                !
 --------------------------------------------------------------------------------
 Trust Radius=3.00D-01 FncErr=1.00D-07 GrdErr=1.00D-06 EigMax=2.50D+02 EigMin=1.00D-04
 Number of steps in this run=    134 maximum allowed number of steps=    156.
 GradGradGradGradGradGradGradGradGradGradGradGradGradGradGradGradGradGrad

                          Input orientation:                          
 ---------------------------------------------------------------------
 Center     Atomic      Atomic             Coordinates (Angstroms)
 Number     Number       Type             X           Y           Z
 ---------------------------------------------------------------------
      1          6           0        2.383200   -0.420470   -0.000880
      2          6           0        1.161700   -1.114870   -0.001840
      3          7           0        0.003820   -0.484150   -0.002690
      4          6           0       -1.137110   -1.120060   -0.002680
      5          6           0       -2.384320   -0.439700   -0.001460
      6          6           0       -2.461670    0.966700   -0.000810
      7          6           0       -3.676120    1.611880    0.001390
      8          6           0       -4.863830    0.889030    0.002960
      9          6           0       -4.810270   -0.497820    0.002080
     10          6           0       -3.598080   -1.151930   -0.000140
     11          7           0        3.527270   -1.152220    0.002590
     12          6           0        4.679030   -0.508210    0.004140
     13          6           0        4.819490    0.867380    0.002160
     14          6           0        3.647870    1.634020   -0.001850
     15          6           0        2.437010    0.999600   -0.003320
     16          1           0        1.205950   -2.216830   -0.000930
     17          1           0       -1.163030   -2.226970   -0.002530
     18          1           0       -1.534450    1.520590   -0.001900
     19          1           0       -3.708170    2.694360    0.001940
     20          1           0       -5.816490    1.400160    0.004840
     21          1           0       -5.728780   -1.071810    0.003200
     22          1           0       -3.565360   -2.235130   -0.000700
     23          1           0        5.556570   -1.151350    0.007120
     24          1           0        5.795970    1.329270    0.003570
     25          1           0        3.705810    2.716350   -0.003800
     26          1           0        1.501640    1.537670   -0.006430
 ---------------------------------------------------------------------
                    Distance matrix (angstroms):
                    1          2          3          4          5
     1  C    0.000000
     2  C    1.405082   0.000000
     3  N    2.380233   1.318520   0.000000
     4  C    3.589152   2.298816   1.306179   0.000000
     5  C    4.767559   3.609725   2.388554   1.420712   0.000000
     6  C    5.039544   4.178725   2.860701   2.471645   1.408526
     7  C    6.391073   5.553348   4.235011   3.729623   2.424404
     8  C    7.364391   6.350012   5.057635   4.233783   2.813097
     9  C    7.193886   6.003765   4.814112   3.725495   2.426649
    10  C    6.025840   4.759925   3.663280   2.461178   1.407298
    11  N    1.358074   2.365869   3.586230   4.664494   5.954376
    12  C    2.297511   3.569269   4.675277   5.848238   7.063684
    13  C    2.755735   4.160380   5.001733   6.279413   7.321431
    14  C    2.412534   3.706405   4.214943   5.520959   6.378686
    15  C    1.421091   2.469292   2.849900   4.155393   5.031581
    16  H    2.147749   1.102848   2.108862   2.587052   4.006024
    17  H    3.979848   2.577040   2.097370   1.107213   2.164690
    18  H    4.372150   3.770262   2.526907   2.670377   2.136590
    19  H    6.841561   6.182708   4.886903   4.600019   3.402194
    20  H    8.399383   7.417584   6.117736   5.314900   3.894216
    21  H    8.138088   6.890616   5.762645   4.591927   3.403674
    22  H    6.219193   4.857991   3.975548   2.672037   2.149052
    23  H    3.256459   4.395031   5.592699   6.693760   7.972719
    24  H    3.835180   5.239304   6.069393   7.353017   8.369374
    25  H    3.404254   4.598994   4.893662   6.178343   6.859325
    26  H    2.147438   2.674238   2.516195   3.745203   4.360126
                    6          7          8          9         10
     6  C    0.000000
     7  C    1.375191   0.000000
     8  C    2.403418   1.390385   0.000000
     9  C    2.767806   2.395231   1.387884   0.000000
    10  C    2.404167   2.764912   2.401593   1.377414   0.000000
    11  N    6.352735   7.715509   8.635813   8.363182   7.125351
    12  C    7.291432   8.619937   9.644608   9.489306   8.302105
    13  C    7.281838   8.528169   9.683344   9.726050   8.656391
    14  C    6.145876   7.324024   8.544242   8.722665   7.763074
    15  C    4.898791   6.143718   7.301680   7.400362   6.407137
    16  H    4.856573   6.204324   6.818256   6.256989   4.920642
    17  H    3.447607   4.588290   4.837913   4.036377   2.661801
    18  H    1.080061   2.143617   3.388755   3.847725   3.376527
    19  H    2.130394   1.082955   2.143541   3.377075   3.847866
    20  H    3.382711   2.150819   1.081119   2.148212   3.381498
    21  H    3.850915   3.378699   2.143136   1.083110   2.132208
    22  H    3.386716   3.848605   3.383255   2.137301   1.083694
    23  H    8.293273   9.637325  10.618282  10.387420   9.154653
    24  H    8.265597   9.476305  10.668887  10.762462   9.716200
    25  H    6.410857   7.464099   8.762298   9.102447   8.265011
    26  H    4.004231   5.178298   6.398440   6.632006   5.765512
                   11         12         13         14         15
    11  N    0.000000
    12  C    1.319584   0.000000
    13  C    2.397627   1.382744   0.000000
    14  C    2.788852   2.377494   1.400159   0.000000
    15  C    2.412267   2.701888   2.386152   1.366994   0.000000
    16  H    2.553808   3.870619   4.750793   4.559827   3.443971
    17  H    4.811863   6.089651   6.735397   6.168631   4.834361
    18  H    5.724067   6.536314   6.387429   5.183561   4.005487
    19  H    8.194374   8.977838   8.721172   7.432070   6.374596
    20  H    9.686098  10.667606  10.649316   9.467251   8.263218
    21  H    9.256399  10.423059  10.725039   9.759257   8.424423
    22  H    7.174824   8.423315   8.940430   8.185414   6.818499
    23  H    2.029305   1.087986   2.149089   3.376611   3.789241
    24  H    3.362260   2.150323   1.080212   2.169616   3.375106
    25  H    3.872693   3.368235   2.158474   1.083881   2.134733
    26  H    3.367308   3.779093   3.384892   2.148396   1.079095
                   16         17         18         19         20
    16  H    0.000000
    17  H    2.369002   0.000000
    18  H    4.634447   3.765921   0.000000
    19  H    6.947544   5.540510   2.470386   0.000000
    20  H    7.899197   5.900069   4.283738   2.473858   0.000000
    21  H    7.028625   4.709618   4.930818   4.273980   2.473526
    22  H    4.771345   2.402345   4.269664   4.931559   4.275857
    23  H    4.479197   6.805151   7.577725  10.031197  11.655758
    24  H    5.800270   7.815022   7.332918   9.601674  11.612676
    25  H    5.530423   6.938445   5.374958   7.414015   9.612837
    26  H    3.766130   4.612266   3.036141   5.336677   7.319430
                   21         22         23         24         25
    21  H    0.000000
    22  H    2.456362   0.000000
    23  H   11.285631   9.186090   0.000000
    24  H   11.772215  10.016959   2.492148   0.000000
    25  H   10.166695   8.796992   4.287719   2.508548   0.000000
    26  H    7.686901   6.317321   4.865539   4.299395   2.499532
                   26
    26  H    0.000000
 Stoichiometry    C13H11N2(1-)
 Framework group  C1[X(C13H11N2)]
 Deg. of freedom    72
 Full point group                 C1      NOp   1
 Largest Abelian subgroup         C1      NOp   1
 Largest concise Abelian subgroup C1      NOp   1
                         Standard orientation:                         
 ---------------------------------------------------------------------
 Center     Atomic      Atomic             Coordinates (Angstroms)
 Number     Number       Type             X           Y           Z
 ---------------------------------------------------------------------
      1          6           0        2.399721   -0.439496   -0.000901
      2          6           0        1.175912   -1.129818   -0.001861
      3          7           0        0.020142   -0.495240   -0.002711
      4          6           0       -1.122902   -1.127341   -0.002701
      5          6           0       -2.367836   -0.442824   -0.001481
      6          6           0       -2.440495    0.963826   -0.000831
      7          6           0       -3.652786    1.613053    0.001369
      8          6           0       -4.842901    0.894168    0.002939
      9          6           0       -4.793967   -0.492853    0.002059
     10          6           0       -3.583965   -1.151002   -0.000161
     11          7           0        3.541344   -1.175058    0.002569
     12          6           0        4.695246   -0.534893    0.004119
     13          6           0        4.840293    0.840221    0.002139
     14          6           0        3.671237    1.610764   -0.001871
     15          6           0        2.458268    0.980387   -0.003341
     16          1           0        1.216486   -2.231919   -0.000951
     17          1           0       -1.152514   -2.234158   -0.002551
     18          1           0       -1.511433    1.514620   -0.001921
     19          1           0       -3.681226    2.695634    0.001919
     20          1           0       -5.793851    1.408473    0.004819
     21          1           0       -5.714386   -1.063776    0.003179
     22          1           0       -3.554858   -2.234305   -0.000721
     23          1           0        5.570636   -1.180956    0.007099
     24          1           0        5.818308    1.298851    0.003549
     25          1           0        3.732787    2.692895   -0.003821
     26          1           0        1.524697    1.521573   -0.006451
 ---------------------------------------------------------------------
 Rotational constants (GHZ):           2.2569695           0.2249504           0.2045620
 Standard basis: def2SVP (5D, 7F)
 There are   280 symmetry adapted cartesian basis functions of A   symmetry.
 There are   265 symmetry adapted basis functions of A   symmetry.
   265 basis functions,   452 primitive gaussians,   280 cartesian basis functions
    52 alpha electrons       52 beta electrons
       nuclear repulsion energy       824.7082244271 Hartrees.
 NAtoms=   26 NActive=   26 NUniq=   26 SFac= 1.00D+00 NAtFMM=   60 NAOKFM=F Big=F
 Integral buffers will be    131072 words long.
 Raffenetti 2 integral format.
 Two-electron integral symmetry is turned on.
 Nuclear repulsion after empirical dispersion term =      824.7072626471 Hartrees.
 One-electron integrals computed using PRISM.
   1 Symmetry operations used in ECPInt.
 ECPInt:  NShTT=    7626 NPrTT=   27958 LenC2=    6795 LenP2D=   17909.
 LDataN:  DoStor=T MaxTD1= 4 Len=   56
 NBasis=   265 RedAO= T EigKep=  2.82D-04  NBF=   265
 NBsUse=   265 1.00D-06 EigRej= -1.00D+00 NBFU=   265
 ExpMin= 1.22D-01 ExpMax= 1.71D+03 ExpMxC= 2.58D+02 IAcc=3 IRadAn=         5 AccDes= 0.00D+00
 Harris functional with IExCor= 1009 and IRadAn=       5 diagonalized for initial guess.
 HarFok:  IExCor= 1009 AccDes= 0.00D+00 IRadAn=         5 IDoV= 1 UseB2=F ITyADJ=14
 ICtDFT=  3500011 ScaDFX=  1.000000  1.000000  1.000000  1.000000
 FoFCou: FMM=F IPFlag=           0 FMFlag=      100000 FMFlg1=           0
         NFxFlg=           0 DoJE=T BraDBF=F KetDBF=T FulRan=T
         wScrn=  0.000000 ICntrl=       500 IOpCl=  0 I1Cent=   200000004 NGrid=           0
         NMat0=    1 NMatS0=      1 NMatT0=    0 NMatD0=    1 NMtDS0=    0 NMtDT0=    0
 Petite list used in FoFCou.
 Requested convergence on RMS density matrix=1.00D-08 within 128 cycles.
 Requested convergence on MAX density matrix=1.00D-06.
 Requested convergence on             energy=1.00D-06.
 No special actions if energy rises.
 Integral accuracy reduced to 1.0D-05 until final iterations.
 Initial convergence to 1.0D-05 achieved.  Increase integral accuracy.
 SCF Done:  E(RM062X) =  -610.816184971     A.U. after   15 cycles
            NFock= 15  Conv=0.51D-08     -V/T= 2.0097

 **********************************************************************

            Population analysis using the SCF Density.

 **********************************************************************

 Orbital symmetries:
       Occupied  (A) (A) (A) (A) (A) (A) (A) (A) (A) (A) (A) (A)
                 (A) (A) (A) (A) (A) (A) (A) (A) (A) (A) (A) (A)
                 (A) (A) (A) (A) (A) (A) (A) (A) (A) (A) (A) (A)
                 (A) (A) (A) (A) (A) (A) (A) (A) (A) (A) (A) (A)
                 (A) (A) (A) (A)
       Virtual   (A) (A) (A) (A) (A) (A) (A) (A) (A) (A) (A) (A)
                 (A) (A) (A) (A) (A) (A) (A) (A) (A) (A) (A) (A)
                 (A) (A) (A) (A) (A) (A) (A) (A) (A) (A) (A) (A)
                 (A) (A) (A) (A) (A) (A) (A) (A) (A) (A) (A) (A)
                 (A) (A) (A) (A) (A) (A) (A) (A) (A) (A) (A) (A)
                 (A) (A) (A) (A) (A) (A) (A) (A) (A) (A) (A) (A)
                 (A) (A) (A) (A) (A) (A) (A) (A) (A) (A) (A) (A)
                 (A) (A) (A) (A) (A) (A) (A) (A) (A) (A) (A) (A)
                 (A) (A) (A) (A) (A) (A) (A) (A) (A) (A) (A) (A)
                 (A) (A) (A) (A) (A) (A) (A) (A) (A) (A) (A) (A)
                 (A) (A) (A) (A) (A) (A) (A) (A) (A) (A) (A) (A)
                 (A) (A) (A) (A) (A) (A) (A) (A) (A) (A) (A) (A)
                 (A) (A) (A) (A) (A) (A) (A) (A) (A) (A) (A) (A)
                 (A) (A) (A) (A) (A) (A) (A) (A) (A) (A) (A) (A)
                 (A) (A) (A) (A) (A) (A) (A) (A) (A) (A) (A) (A)
                 (A) (A) (A) (A) (A) (A) (A) (A) (A) (A) (A) (A)
                 (A) (A) (A) (A) (A) (A) (A) (A) (A) (A) (A) (A)
                 (A) (A) (A) (A) (A) (A) (A) (A) (A)
 The electronic state is 1-A.
 Alpha  occ. eigenvalues --  -14.60016 -14.59515 -10.44531 -10.43533 -10.42981
 Alpha  occ. eigenvalues --  -10.42742 -10.42485 -10.41784 -10.41710 -10.41541
 Alpha  occ. eigenvalues --  -10.41059 -10.40869 -10.40585 -10.40241 -10.39110
 Alpha  occ. eigenvalues --   -0.89414  -0.86437  -0.81738  -0.74821  -0.72702
 Alpha  occ. eigenvalues --   -0.70396  -0.70059  -0.62486  -0.57525  -0.55939
 Alpha  occ. eigenvalues --   -0.55073  -0.52378  -0.48664  -0.45187  -0.44415
 Alpha  occ. eigenvalues --   -0.41868  -0.40393  -0.38542  -0.37636  -0.36206
 Alpha  occ. eigenvalues --   -0.35766  -0.34749  -0.33812  -0.33571  -0.31773
 Alpha  occ. eigenvalues --   -0.31086  -0.28778  -0.27562  -0.26868  -0.26451
 Alpha  occ. eigenvalues --   -0.20748  -0.19645  -0.18067  -0.17322  -0.16091
 Alpha  occ. eigenvalues --   -0.15856  -0.03719
 Alpha virt. eigenvalues --    0.12626   0.16133   0.16250   0.20392   0.21707
 Alpha virt. eigenvalues --    0.22605   0.24436   0.25959   0.26476   0.27042
 Alpha virt. eigenvalues --    0.27684   0.28822   0.29567   0.29828   0.34704
 Alpha virt. eigenvalues --    0.35347   0.36171   0.38719   0.39846   0.41070
 Alpha virt. eigenvalues --    0.44568   0.44800   0.46172   0.47194   0.47699
 Alpha virt. eigenvalues --    0.47894   0.49128   0.50520   0.50979   0.53783
 Alpha virt. eigenvalues --    0.54794   0.56300   0.56738   0.57940   0.59040
 Alpha virt. eigenvalues --    0.59439   0.59894   0.62889   0.64307   0.64344
 Alpha virt. eigenvalues --    0.64885   0.65491   0.65878   0.67564   0.67804
 Alpha virt. eigenvalues --    0.68350   0.68799   0.70060   0.71056   0.71446
 Alpha virt. eigenvalues --    0.72051   0.72302   0.75246   0.77369   0.78031
 Alpha virt. eigenvalues --    0.78691   0.79264   0.81063   0.81627   0.82684
 Alpha virt. eigenvalues --    0.82778   0.83374   0.83433   0.85124   0.85764
 Alpha virt. eigenvalues --    0.87234   0.87846   0.87879   0.88677   0.89224
 Alpha virt. eigenvalues --    0.90676   0.91047   0.92147   0.93045   0.93365
 Alpha virt. eigenvalues --    0.94429   0.96692   0.98889   0.99481   1.00763
 Alpha virt. eigenvalues --    1.01700   1.03516   1.04347   1.05289   1.08225
 Alpha virt. eigenvalues --    1.10538   1.13284   1.13436   1.18915   1.19236
 Alpha virt. eigenvalues --    1.22162   1.24591   1.27999   1.28526   1.31409
 Alpha virt. eigenvalues --    1.34790   1.35656   1.37234   1.38209   1.42691
 Alpha virt. eigenvalues --    1.43276   1.43721   1.44335   1.44843   1.44887
 Alpha virt. eigenvalues --    1.45344   1.46156   1.48590   1.48633   1.49188
 Alpha virt. eigenvalues --    1.50965   1.52510   1.53511   1.53528   1.59528
 Alpha virt. eigenvalues --    1.62213   1.68041   1.68825   1.73614   1.83683
 Alpha virt. eigenvalues --    1.84975   1.85000   1.85248   1.88373   1.89313
 Alpha virt. eigenvalues --    1.90033   1.91999   1.92322   1.93125   1.94161
 Alpha virt. eigenvalues --    1.94356   1.94651   1.94952   1.96287   1.96913
 Alpha virt. eigenvalues --    1.97615   1.97928   1.98670   2.01245   2.02755
 Alpha virt. eigenvalues --    2.05907   2.07966   2.08385   2.10273   2.11138
 Alpha virt. eigenvalues --    2.12373   2.13560   2.14322   2.15251   2.15870
 Alpha virt. eigenvalues --    2.16087   2.17757   2.19951   2.23318   2.24827
 Alpha virt. eigenvalues --    2.25909   2.27549   2.28206   2.30736   2.31432
 Alpha virt. eigenvalues --    2.32097   2.33483   2.34716   2.37361   2.40521
 Alpha virt. eigenvalues --    2.41941   2.44830   2.45505   2.45870   2.48719
 Alpha virt. eigenvalues --    2.49584   2.50974   2.52218   2.55799   2.57545
 Alpha virt. eigenvalues --    2.59841   2.62752   2.63310   2.66878   2.70476
 Alpha virt. eigenvalues --    2.71487   2.74366   2.77647   2.79073   2.80303
 Alpha virt. eigenvalues --    2.81329   2.85795   2.87813   2.88342   2.89305
 Alpha virt. eigenvalues --    2.90047   2.90941   2.92163   2.97027   2.97673
 Alpha virt. eigenvalues --    2.98084   3.02317   3.05438   3.05748   3.07142
 Alpha virt. eigenvalues --    3.11293   3.15043   3.20729   3.23125   3.27449
 Alpha virt. eigenvalues --    3.29106   3.32915   3.39095   3.48447   3.61455
 Alpha virt. eigenvalues --    3.71364   3.81059   3.84057
          Condensed to atoms (all electrons):
               1          2          3          4          5          6
     1  C    5.262213   0.237446  -0.104982   0.014785   0.000396  -0.000405
     2  C    0.237446   5.213425   0.535465  -0.115921   0.014756   0.001045
     3  N   -0.104982   0.535465   6.250526   0.571816  -0.112067   0.010595
     4  C    0.014785  -0.115921   0.571816   5.162231   0.273899  -0.087221
     5  C    0.000396   0.014756  -0.112067   0.273899   5.437848   0.209502
     6  C   -0.000405   0.001045   0.010595  -0.087221   0.209502   5.222718
     7  C   -0.000014   0.000024   0.001420   0.019575   0.096539   0.256182
     8  C    0.000000  -0.000000   0.000010  -0.001040  -0.158480   0.096024
     9  C    0.000000   0.000009  -0.000286   0.016105   0.099312  -0.146607
    10  C    0.000011  -0.000130   0.004717  -0.113943   0.281924   0.053308
    11  N    0.514553  -0.109468   0.002388  -0.000072   0.000002  -0.000000
    12  C   -0.052879   0.007785  -0.000107   0.000010  -0.000000  -0.000000
    13  C   -0.074367   0.001976  -0.000061   0.000001   0.000000   0.000000
    14  C   -0.002408   0.015137   0.002098  -0.000007  -0.000014   0.000002
    15  C    0.301598  -0.091556   0.014625   0.000172  -0.000397   0.000044
    16  H   -0.090095   0.391581  -0.060543  -0.015032  -0.001444   0.000376
    17  H   -0.001845  -0.011121  -0.059398   0.417453  -0.111008   0.018142
    18  H   -0.001251   0.000795   0.021078  -0.025604  -0.068855   0.461519
    19  H    0.000000  -0.000000  -0.000017  -0.000375   0.016895  -0.079847
    20  H   -0.000000   0.000000   0.000000   0.000046  -0.001616   0.015657
    21  H   -0.000000  -0.000000   0.000003  -0.000380   0.017047  -0.001950
    22  H   -0.000004  -0.000010   0.000144  -0.019971  -0.072321   0.017613
    23  H    0.006596  -0.000571   0.000002  -0.000000  -0.000000   0.000000
    24  H    0.000204   0.000083  -0.000000   0.000000  -0.000000   0.000000
    25  H    0.013791  -0.000455  -0.000012  -0.000000   0.000000  -0.000000
    26  H   -0.037657  -0.023492   0.018547   0.000900  -0.001142   0.000087
               7          8          9         10         11         12
     1  C   -0.000014   0.000000   0.000000   0.000011   0.514553  -0.052879
     2  C    0.000024  -0.000000   0.000009  -0.000130  -0.109468   0.007785
     3  N    0.001420   0.000010  -0.000286   0.004717   0.002388  -0.000107
     4  C    0.019575  -0.001040   0.016105  -0.113943  -0.000072   0.000010
     5  C    0.096539  -0.158480   0.099312   0.281924   0.000002  -0.000000
     6  C    0.256182   0.096024  -0.146607   0.053308  -0.000000  -0.000000
     7  C    5.158068   0.227671   0.104770  -0.157550  -0.000000   0.000000
     8  C    0.227671   5.243399   0.249940   0.092828  -0.000000   0.000000
     9  C    0.104770   0.249940   5.099428   0.284137   0.000000  -0.000000
    10  C   -0.157550   0.092828   0.284137   5.246192  -0.000000   0.000000
    11  N   -0.000000  -0.000000   0.000000  -0.000000   6.444143   0.546831
    12  C    0.000000   0.000000  -0.000000   0.000000   0.546831   4.756267
    13  C   -0.000000  -0.000000  -0.000000   0.000000  -0.046123   0.422675
    14  C    0.000000  -0.000000   0.000000  -0.000000  -0.054941   0.006534
    15  C    0.000004   0.000000  -0.000000  -0.000000  -0.063262  -0.084860
    16  H    0.000009  -0.000000  -0.000000  -0.000082   0.002849   0.000229
    17  H   -0.000227  -0.000117   0.000721  -0.019422  -0.000082  -0.000001
    18  H   -0.089313   0.015980  -0.002213   0.017130  -0.000002   0.000000
    19  H    0.452025  -0.087582   0.016680  -0.002028   0.000000  -0.000000
    20  H   -0.079659   0.447001  -0.080321   0.016246   0.000000   0.000000
    21  H    0.016367  -0.085449   0.447570  -0.079109  -0.000000   0.000000
    22  H   -0.002104   0.016100  -0.082605   0.445190  -0.000000   0.000000
    23  H    0.000000  -0.000000   0.000000  -0.000000  -0.047925   0.414921
    24  H   -0.000000   0.000000  -0.000000   0.000000   0.006907  -0.053173
    25  H    0.000000   0.000000  -0.000000  -0.000000  -0.000336   0.012339
    26  H    0.000038  -0.000001   0.000001  -0.000008   0.006848  -0.000423
              13         14         15         16         17         18
     1  C   -0.074367  -0.002408   0.301598  -0.090095  -0.001845  -0.001251
     2  C    0.001976   0.015137  -0.091556   0.391581  -0.011121   0.000795
     3  N   -0.000061   0.002098   0.014625  -0.060543  -0.059398   0.021078
     4  C    0.000001  -0.000007   0.000172  -0.015032   0.417453  -0.025604
     5  C    0.000000  -0.000014  -0.000397  -0.001444  -0.111008  -0.068855
     6  C    0.000000   0.000002   0.000044   0.000376   0.018142   0.461519
     7  C   -0.000000   0.000000   0.000004   0.000009  -0.000227  -0.089313
     8  C   -0.000000  -0.000000   0.000000  -0.000000  -0.000117   0.015980
     9  C   -0.000000   0.000000  -0.000000  -0.000000   0.000721  -0.002213
    10  C    0.000000  -0.000000  -0.000000  -0.000082  -0.019422   0.017130
    11  N   -0.046123  -0.054941  -0.063262   0.002849  -0.000082  -0.000002
    12  C    0.422675   0.006534  -0.084860   0.000229  -0.000001   0.000000
    13  C    5.153725   0.347966   0.020492   0.000137  -0.000001  -0.000000
    14  C    0.347966   4.980201   0.385336  -0.000156   0.000009   0.000046
    15  C    0.020492   0.385336   5.145708   0.024036   0.000408   0.000206
    16  H    0.000137  -0.000156   0.024036   0.796298   0.019153   0.000227
    17  H   -0.000001   0.000009   0.000408   0.019153   0.804079   0.001194
    18  H   -0.000000   0.000046   0.000206   0.000227   0.001194   0.696359
    19  H    0.000000   0.000000  -0.000000  -0.000000   0.000009  -0.014334
    20  H    0.000000   0.000000   0.000000   0.000000   0.000000  -0.000282
    21  H    0.000000   0.000000  -0.000000   0.000000   0.000017   0.000041
    22  H   -0.000000   0.000000   0.000000   0.000043   0.008416  -0.000241
    23  H   -0.087729   0.007363   0.001689  -0.000139   0.000000   0.000000
    24  H    0.416586  -0.070857   0.013687  -0.000008   0.000000   0.000000
    25  H   -0.078798   0.442054  -0.070712   0.000012  -0.000000   0.000003
    26  H    0.013520  -0.081555   0.434068   0.000719   0.000261   0.000848
              19         20         21         22         23         24
     1  C    0.000000  -0.000000  -0.000000  -0.000004   0.006596   0.000204
     2  C   -0.000000   0.000000  -0.000000  -0.000010  -0.000571   0.000083
     3  N   -0.000017   0.000000   0.000003   0.000144   0.000002  -0.000000
     4  C   -0.000375   0.000046  -0.000380  -0.019971  -0.000000   0.000000
     5  C    0.016895  -0.001616   0.017047  -0.072321  -0.000000  -0.000000
     6  C   -0.079847   0.015657  -0.001950   0.017613   0.000000   0.000000
     7  C    0.452025  -0.079659   0.016367  -0.002104   0.000000  -0.000000
     8  C   -0.087582   0.447001  -0.085449   0.016100  -0.000000   0.000000
     9  C    0.016680  -0.080321   0.447570  -0.082605   0.000000  -0.000000
    10  C   -0.002028   0.016246  -0.079109   0.445190  -0.000000   0.000000
    11  N    0.000000   0.000000  -0.000000  -0.000000  -0.047925   0.006907
    12  C   -0.000000   0.000000   0.000000   0.000000   0.414921  -0.053173
    13  C    0.000000   0.000000   0.000000  -0.000000  -0.087729   0.416586
    14  C    0.000000   0.000000   0.000000   0.000000   0.007363  -0.070857
    15  C   -0.000000   0.000000  -0.000000   0.000000   0.001689   0.013687
    16  H   -0.000000   0.000000   0.000000   0.000043  -0.000139  -0.000008
    17  H    0.000009   0.000000   0.000017   0.008416   0.000000   0.000000
    18  H   -0.014334  -0.000282   0.000041  -0.000241   0.000000   0.000000
    19  H    0.741774  -0.014479  -0.000365   0.000048   0.000000   0.000000
    20  H   -0.014479   0.749366  -0.014628  -0.000341   0.000000   0.000000
    21  H   -0.000365  -0.014628   0.747566  -0.015090  -0.000000   0.000000
    22  H    0.000048  -0.000341  -0.015090   0.739291  -0.000000  -0.000000
    23  H    0.000000   0.000000  -0.000000  -0.000000   0.736876  -0.007911
    24  H    0.000000   0.000000   0.000000  -0.000000  -0.007911   0.743500
    25  H   -0.000000  -0.000000  -0.000000  -0.000000  -0.000414  -0.013314
    26  H    0.000005   0.000000   0.000000   0.000000   0.000107  -0.000166
              25         26
     1  C    0.013791  -0.037657
     2  C   -0.000455  -0.023492
     3  N   -0.000012   0.018547
     4  C   -0.000000   0.000900
     5  C    0.000000  -0.001142
     6  C   -0.000000   0.000087
     7  C    0.000000   0.000038
     8  C    0.000000  -0.000001
     9  C   -0.000000   0.000001
    10  C   -0.000000  -0.000008
    11  N   -0.000336   0.006848
    12  C    0.012339  -0.000423
    13  C   -0.078798   0.013520
    14  C    0.442054  -0.081555
    15  C   -0.070712   0.434068
    16  H    0.000012   0.000719
    17  H   -0.000000   0.000261
    18  H    0.000003   0.000848
    19  H   -0.000000   0.000005
    20  H   -0.000000   0.000000
    21  H   -0.000000   0.000000
    22  H   -0.000000   0.000000
    23  H   -0.000414   0.000107
    24  H   -0.013314  -0.000166
    25  H    0.732718  -0.013072
    26  H   -0.013072   0.693884
 Mulliken charges:
               1
     1  C    0.014316
     2  C   -0.066800
     3  N   -0.095961
     4  C   -0.097426
     5  C    0.079224
     6  C   -0.046786
     7  C   -0.003825
     8  C   -0.056282
     9  C   -0.006641
    10  C   -0.069411
    11  N   -0.202309
    12  C    0.023852
    13  C   -0.089998
    14  C    0.023193
    15  C   -0.031284
    16  H   -0.068171
    17  H   -0.066641
    18  H   -0.013332
    19  H   -0.028408
    20  H   -0.036991
    21  H   -0.031638
    22  H   -0.034158
    23  H   -0.022865
    24  H   -0.035538
    25  H   -0.023803
    26  H   -0.012317
 Sum of Mulliken charges =  -1.00000
 Mulliken charges with hydrogens summed into heavy atoms:
               1
     1  C    0.014316
     2  C   -0.134971
     3  N   -0.095961
     4  C   -0.164066
     5  C    0.079224
     6  C   -0.060118
     7  C   -0.032233
     8  C   -0.093273
     9  C   -0.038280
    10  C   -0.103569
    11  N   -0.202309
    12  C    0.000988
    13  C   -0.125536
    14  C   -0.000611
    15  C   -0.043601
 Electronic spatial extent (au):  <R**2>=           5043.1073
 Charge=             -1.0000 electrons
 Dipole moment (field-independent basis, Debye):
    X=             -1.3912    Y=              1.9836    Z=              0.0003  Tot=              2.4228
 Quadrupole moment (field-independent basis, Debye-Ang):
   XX=           -137.6725   YY=            -93.2728   ZZ=            -97.1548
   XY=              6.4872   XZ=             -0.0090   YZ=             -0.0032
 Traceless Quadrupole moment (field-independent basis, Debye-Ang):
   XX=            -28.3058   YY=             16.0939   ZZ=             12.2119
   XY=              6.4872   XZ=             -0.0090   YZ=             -0.0032
 Octapole moment (field-independent basis, Debye-Ang**2):
  XXX=             -2.3241  YYY=             11.4678  ZZZ=              0.0027  XYY=            -12.1241
  XXY=              5.1881  XXZ=              0.0431  XZZ=              5.6941  YZZ=             -1.5601
  YYZ=             -0.0194  XYZ=             -0.0060
 Hexadecapole moment (field-independent basis, Debye-Ang**3):
 XXXX=          -7051.9984 YYYY=           -761.5989 ZZZZ=           -106.9035 XXXY=             61.1316
 XXXZ=              0.0169 YYYX=             28.6535 YYYZ=             -0.0110 ZZZX=              0.0507
 ZZZY=             -0.0105 XXYY=          -1230.9820 XXZZ=          -1191.1483 YYZZ=           -158.5278
 XXYZ=              0.0134 YYXZ=             -0.0869 ZZXY=             -5.1353
 N-N= 8.247072626471D+02 E-N=-3.080028094738D+03  KE= 6.049685909839D+02
   1 Symmetry operations used in ECPInt.
 ECPInt:  NShTT=    7626 NPrTT=   27958 LenC2=    6795 LenP2D=   17909.
 LDataN:  DoStor=T MaxTD1= 5 Len=  102
 Calling FoFJK, ICntrl=      2127 FMM=F ISym2X=0 I1Cent= 0 IOpClX= 0 NMat=1 NMatS=1 NMatT=0.
 ***** Axes restored to original set *****
 -------------------------------------------------------------------
 Center     Atomic                   Forces (Hartrees/Bohr)
 Number     Number              X              Y              Z
 -------------------------------------------------------------------
      1        6           0.011365626   -0.000312760    0.000011949
      2        6          -0.010165430   -0.009601535   -0.000011281
      3        7           0.000711327    0.002525787   -0.000003488
      4        6           0.004866132   -0.009654037   -0.000011330
      5        6          -0.003077010    0.000515930    0.000004328
      6        6           0.002035452    0.001277236   -0.000007412
      7        6          -0.001166516    0.001260273   -0.000005085
      8        6          -0.006712913    0.002683993    0.000006177
      9        6          -0.003556935    0.000543129    0.000000634
     10        6           0.002577731   -0.002004883   -0.000010755
     11        7          -0.003830270   -0.002462997   -0.000004746
     12        6          -0.001981005   -0.005618088   -0.000014020
     13        6           0.003959362    0.006169568    0.000000980
     14        6           0.003826934   -0.001557091    0.000016486
     15        6          -0.002834129    0.000183562   -0.000004633
     16        1           0.001252647    0.000532316    0.000007494
     17        1           0.000417851    0.000598198    0.000002402
     18        1           0.006761405    0.003440447   -0.000003089
     19        1           0.000008921    0.007467290    0.000005476
     20        1          -0.006929294    0.003619796    0.000010967
     21        1          -0.006285644   -0.003897767    0.000008327
     22        1           0.000445870   -0.006939731   -0.000001266
     23        1           0.008031291   -0.002154315    0.000019341
     24        1           0.007218879    0.002669315    0.000010409
     25        1          -0.000324404    0.006921884   -0.000010943
     26        1          -0.006615881    0.003794481   -0.000016921
 -------------------------------------------------------------------
 Cartesian Forces:  Max     0.011365626 RMS     0.003909961

 GradGradGradGradGradGradGradGradGradGradGradGradGradGradGradGradGradGrad
 Berny optimization.
 FormGI is forming the generalized inverse of G from B-inverse, IUseBI=4.
 Internal  Forces:  Max     0.020139601 RMS     0.004787149
 Search for a local minimum.
 Step number   1 out of a maximum of  134
 All quantities printed in internal units (Hartrees-Bohrs-Radians)
 Mixed Optimization -- RFO/linear search
 Second derivative matrix not updated -- first step.
 ITU=  0
     Eigenvalues ---    0.01815   0.01941   0.01952   0.02022   0.02038
     Eigenvalues ---    0.02038   0.02165   0.02170   0.02203   0.02204
     Eigenvalues ---    0.02207   0.02232   0.02276   0.02283   0.02286
     Eigenvalues ---    0.02290   0.02324   0.02335   0.02343   0.02437
     Eigenvalues ---    0.02514   0.02770   0.02933   0.16000   0.16000
     Eigenvalues ---    0.16000   0.16000   0.16000   0.16000   0.16000
     Eigenvalues ---    0.16000   0.16000   0.16000   0.16000   0.22000
     Eigenvalues ---    0.22000   0.22000   0.22000   0.22000   0.22416
     Eigenvalues ---    0.23457   0.24408   0.25000   0.25000   0.25000
     Eigenvalues ---    0.32897   0.33369   0.35046   0.35529   0.35552
     Eigenvalues ---    0.35621   0.35640   0.35859   0.35969   0.35987
     Eigenvalues ---    0.36104   0.40365   0.41474   0.42353   0.42480
     Eigenvalues ---    0.44064   0.44789   0.46004   0.46367   0.47007
     Eigenvalues ---    0.48256   0.49802   0.49903   0.52300   0.60370
     Eigenvalues ---    0.62302   0.65506
 RFO step:  Lambda=-6.61085369D-03 EMin= 1.81476917D-02
 Linear search not attempted -- first point.
 Iteration  1 RMS(Cart)=  0.04612047 RMS(Int)=  0.00005378
 Iteration  2 RMS(Cart)=  0.00008260 RMS(Int)=  0.00000200
 Iteration  3 RMS(Cart)=  0.00000001 RMS(Int)=  0.00000200
 Variable       Old X    -DE/DX   Delta X   Delta X   Delta X     New X
                                 (Linear)    (Quad)   (Total)
    R1        2.65522   0.02014   0.00000   0.04431   0.04431   2.69953
    R2        2.56639   0.00502   0.00000   0.00912   0.00912   2.57551
    R3        2.68547   0.00815   0.00000   0.01852   0.01852   2.70399
    R4        2.49164   0.00937   0.00000   0.01488   0.01488   2.50652
    R5        2.08408  -0.00048   0.00000  -0.00142  -0.00142   2.08266
    R6        2.46832   0.00981   0.00000   0.01483   0.01483   2.48315
    R7        2.68476   0.01776   0.00000   0.04129   0.04129   2.72605
    R8        2.09233  -0.00061   0.00000  -0.00181  -0.00181   2.09052
    R9        2.66173   0.01033   0.00000   0.02277   0.02277   2.68450
   R10        2.65941   0.00963   0.00000   0.02110   0.02109   2.68050
   R11        2.59873   0.01321   0.00000   0.02610   0.02610   2.62483
   R12        2.04102   0.00757   0.00000   0.02065   0.02065   2.06167
   R13        2.62745   0.01102   0.00000   0.02323   0.02323   2.65068
   R14        2.04649   0.00746   0.00000   0.02056   0.02056   2.06704
   R15        2.62272   0.00967   0.00000   0.02022   0.02022   2.64294
   R16        2.04302   0.00782   0.00000   0.02140   0.02140   2.06442
   R17        2.60294   0.01402   0.00000   0.02789   0.02789   2.63083
   R18        2.04678   0.00740   0.00000   0.02039   0.02039   2.06717
   R19        2.04789   0.00695   0.00000   0.01920   0.01920   2.06708
   R20        2.49365   0.00962   0.00000   0.01549   0.01550   2.50915
   R21        2.61301   0.01042   0.00000   0.02154   0.02154   2.63455
   R22        2.05600   0.00775   0.00000   0.02170   0.02170   2.07770
   R23        2.64592   0.00698   0.00000   0.01530   0.01530   2.66122
   R24        2.04130   0.00767   0.00000   0.02093   0.02093   2.06224
   R25        2.58324   0.01167   0.00000   0.02216   0.02216   2.60541
   R26        2.04824   0.00690   0.00000   0.01906   0.01906   2.06730
   R27        2.03919   0.00763   0.00000   0.02075   0.02075   2.05994
    A1        2.05564   0.00201   0.00000   0.00835   0.00836   2.06400
    A2        2.12559   0.00051   0.00000   0.00251   0.00251   2.12810
    A3        2.10196  -0.00251   0.00000  -0.01086  -0.01087   2.09109
    A4        2.12589   0.00279   0.00000   0.01231   0.01231   2.13821
    A5        2.04758  -0.00272   0.00000  -0.01413  -0.01413   2.03346
    A6        2.10971  -0.00007   0.00000   0.00181   0.00181   2.11152
    A7        2.13434   0.00586   0.00000   0.02283   0.02283   2.15717
    A8        2.13373   0.00271   0.00000   0.01197   0.01197   2.14570
    A9        2.10269  -0.00178   0.00000  -0.00853  -0.00853   2.09416
   A10        2.04677  -0.00093   0.00000  -0.00344  -0.00344   2.04333
   A11        2.12513   0.00237   0.00000   0.00980   0.00980   2.13493
   A12        2.11155   0.00045   0.00000   0.00233   0.00233   2.11388
   A13        2.04651  -0.00282   0.00000  -0.01213  -0.01213   2.03438
   A14        2.11408   0.00099   0.00000   0.00367   0.00367   2.11774
   A15        2.05433  -0.00102   0.00000  -0.00498  -0.00498   2.04935
   A16        2.11478   0.00003   0.00000   0.00132   0.00132   2.11609
   A17        2.10653   0.00195   0.00000   0.00890   0.00890   2.11543
   A18        2.08873  -0.00121   0.00000  -0.00585  -0.00585   2.08288
   A19        2.08792  -0.00074   0.00000  -0.00305  -0.00305   2.08487
   A20        2.07892  -0.00318   0.00000  -0.01327  -0.01327   2.06565
   A21        2.10243   0.00168   0.00000   0.00719   0.00719   2.10961
   A22        2.10184   0.00150   0.00000   0.00609   0.00609   2.10793
   A23        2.10423   0.00101   0.00000   0.00464   0.00464   2.10887
   A24        2.09073  -0.00053   0.00000  -0.00246  -0.00246   2.08827
   A25        2.08822  -0.00048   0.00000  -0.00218  -0.00218   2.08604
   A26        2.11611   0.00204   0.00000   0.00820   0.00820   2.12431
   A27        2.07125  -0.00126   0.00000  -0.00556  -0.00556   2.06569
   A28        2.09583  -0.00078   0.00000  -0.00264  -0.00264   2.09319
   A29        2.06272   0.00335   0.00000   0.01307   0.01307   2.07578
   A30        2.18239  -0.00019   0.00000   0.00036   0.00037   2.18276
   A31        1.99929   0.00319   0.00000   0.01841   0.01841   2.01770
   A32        2.10150  -0.00300   0.00000  -0.01877  -0.01878   2.08273
   A33        2.04846  -0.00314   0.00000  -0.01253  -0.01252   2.03594
   A34        2.11438   0.00089   0.00000   0.00216   0.00216   2.11653
   A35        2.12034   0.00226   0.00000   0.01037   0.01037   2.13071
   A36        2.07956   0.00228   0.00000   0.01014   0.01014   2.08969
   A37        2.09674  -0.00043   0.00000  -0.00079  -0.00079   2.09595
   A38        2.10689  -0.00185   0.00000  -0.00934  -0.00935   2.09755
   A39        2.09128   0.00023   0.00000  -0.00017  -0.00018   2.09110
   A40        2.05495  -0.00012   0.00000   0.00003   0.00003   2.05498
   A41        2.13696  -0.00010   0.00000   0.00014   0.00015   2.13710
    D1        3.13940   0.00004   0.00000   0.00150   0.00150   3.14090
    D2       -0.00125   0.00001   0.00000   0.00057   0.00057  -0.00067
    D3       -0.00211   0.00003   0.00000   0.00123   0.00123  -0.00088
    D4        3.14043   0.00001   0.00000   0.00030   0.00030   3.14073
    D5       -3.14106  -0.00001   0.00000  -0.00045  -0.00045  -3.14151
    D6        0.00045  -0.00001   0.00000  -0.00018  -0.00018   0.00027
    D7        3.14124   0.00001   0.00000   0.00022   0.00022   3.14146
    D8       -0.00049   0.00001   0.00000   0.00036   0.00036  -0.00013
    D9       -0.00027  -0.00000   0.00000  -0.00006  -0.00005  -0.00032
   D10        3.14119   0.00000   0.00000   0.00008   0.00008   3.14127
   D11       -3.14077  -0.00002   0.00000  -0.00063  -0.00064  -3.14141
   D12       -0.00016   0.00001   0.00000   0.00032   0.00032   0.00016
   D13        3.13981   0.00006   0.00000   0.00178   0.00178  -3.14159
   D14       -0.00061   0.00003   0.00000   0.00064   0.00064   0.00003
   D15        0.00052  -0.00001   0.00000  -0.00042  -0.00042   0.00010
   D16       -3.14048  -0.00003   0.00000  -0.00097  -0.00097  -3.14145
   D17        3.14099   0.00002   0.00000   0.00067   0.00068  -3.14152
   D18       -0.00002   0.00001   0.00000   0.00013   0.00013   0.00011
   D19       -3.14073  -0.00002   0.00000  -0.00067  -0.00067  -3.14139
   D20        0.00066  -0.00001   0.00000  -0.00055  -0.00055   0.00011
   D21        0.00030  -0.00000   0.00000  -0.00013  -0.00014   0.00016
   D22       -3.14150  -0.00000   0.00000  -0.00002  -0.00002  -3.14152
   D23        3.14071   0.00002   0.00000   0.00067   0.00066   3.14138
   D24       -0.00066   0.00001   0.00000   0.00049   0.00049  -0.00017
   D25       -0.00031   0.00000   0.00000   0.00014   0.00014  -0.00018
   D26        3.14149  -0.00000   0.00000  -0.00004  -0.00003   3.14146
   D27       -0.00006   0.00000   0.00000   0.00002   0.00002  -0.00005
   D28        3.14149   0.00000   0.00000   0.00005   0.00005   3.14154
   D29       -3.14144  -0.00000   0.00000  -0.00010  -0.00010  -3.14155
   D30        0.00012  -0.00000   0.00000  -0.00007  -0.00007   0.00004
   D31       -0.00016   0.00000   0.00000   0.00010   0.00010  -0.00006
   D32        3.14143   0.00000   0.00000   0.00007   0.00007   3.14150
   D33        3.14146   0.00000   0.00000   0.00007   0.00007   3.14153
   D34       -0.00013   0.00000   0.00000   0.00003   0.00003  -0.00009
   D35        0.00015  -0.00000   0.00000  -0.00010  -0.00010   0.00005
   D36       -3.14150  -0.00000   0.00000  -0.00004  -0.00004  -3.14154
   D37       -3.14145  -0.00000   0.00000  -0.00006  -0.00006  -3.14151
   D38        0.00009   0.00000   0.00000   0.00000   0.00000   0.00009
   D39        0.00010  -0.00000   0.00000  -0.00002  -0.00002   0.00007
   D40        3.14147   0.00000   0.00000   0.00015   0.00015  -3.14156
   D41       -3.14144  -0.00000   0.00000  -0.00009  -0.00009  -3.14153
   D42       -0.00006   0.00000   0.00000   0.00009   0.00009   0.00003
   D43       -0.00030   0.00001   0.00000   0.00027   0.00028  -0.00003
   D44        3.14139   0.00000   0.00000   0.00014   0.00014   3.14153
   D45       -0.00004  -0.00000   0.00000  -0.00012  -0.00012  -0.00016
   D46       -3.14154  -0.00000   0.00000  -0.00012  -0.00011   3.14153
   D47        3.14144   0.00000   0.00000   0.00002   0.00002   3.14147
   D48       -0.00005   0.00000   0.00000   0.00002   0.00002  -0.00003
   D49        0.00024  -0.00000   0.00000  -0.00014  -0.00014   0.00010
   D50       -3.14130  -0.00000   0.00000  -0.00004  -0.00004  -3.14135
   D51       -3.14145  -0.00000   0.00000  -0.00014  -0.00014  -3.14159
   D52        0.00019  -0.00000   0.00000  -0.00004  -0.00004   0.00015
   D53       -0.00008   0.00001   0.00000   0.00021   0.00021   0.00013
   D54       -3.14154   0.00000   0.00000   0.00007   0.00007  -3.14147
   D55        3.14146   0.00000   0.00000   0.00012   0.00012   3.14158
   D56       -0.00000  -0.00000   0.00000  -0.00002  -0.00002  -0.00002
         Item               Value     Threshold  Converged?
 Maximum Force            0.020140     0.000450     NO 
 RMS     Force            0.004787     0.000300     NO 
 Maximum Displacement     0.160013     0.001800     NO 
 RMS     Displacement     0.046138     0.001200     NO 
 Predicted change in Energy=-3.360221D-03
 GradGradGradGradGradGradGradGradGradGradGradGradGradGradGradGradGradGrad

                          Input orientation:                          
 ---------------------------------------------------------------------
 Center     Atomic      Atomic             Coordinates (Angstroms)
 Number     Number       Type             X           Y           Z
 ---------------------------------------------------------------------
      1          6           0        2.421687   -0.426160   -0.000021
      2          6           0        1.178356   -1.129601   -0.000165
      3          7           0        0.007109   -0.507101   -0.000080
      4          6           0       -1.148627   -1.132356   -0.000008
      5          6           0       -2.414604   -0.440768    0.000084
      6          6           0       -2.505661    0.976885   -0.000015
      7          6           0       -3.735897    1.621746    0.000315
      8          6           0       -4.936557    0.896539    0.000703
      9          6           0       -4.868738   -0.500401    0.000674
     10          6           0       -3.640091   -1.155059    0.000329
     11          7           0        3.574432   -1.153259    0.000707
     12          6           0        4.737705   -0.513097    0.000948
     13          6           0        4.889207    0.872791    0.000479
     14          6           0        3.706664    1.637501   -0.000512
     15          6           0        2.482392    1.003441   -0.000846
     16          1           0        1.235873   -2.230197   -0.000333
     17          1           0       -1.178995   -2.238195    0.000012
     18          1           0       -1.571428    1.540324   -0.000273
     19          1           0       -3.767923    2.715109    0.000274
     20          1           0       -5.901165    1.409341    0.001052
     21          1           0       -5.792054   -1.087003    0.000920
     22          1           0       -3.604192   -2.248323    0.000282
     23          1           0        5.632020   -1.152658    0.001601
     24          1           0        5.878011    1.334504    0.000778
     25          1           0        3.760114    2.730160   -0.001153
     26          1           0        1.540011    1.551326   -0.001721
 ---------------------------------------------------------------------
                    Distance matrix (angstroms):
                    1          2          3          4          5
     1  C    0.000000
     2  C    1.428530   0.000000
     3  N    2.415934   1.326396   0.000000
     4  C    3.639486   2.326985   1.314028   0.000000
     5  C    4.836313   3.658395   2.422621   1.442564   0.000000
     6  C    5.123212   4.243733   2.918258   2.508075   1.420575
     7  C    6.489203   5.632033   4.306052   3.778762   2.449445
     8  C    7.476181   6.441848   5.139070   4.297072   2.854582
     9  C    7.290803   6.079741   4.875852   3.773406   2.454859
    10  C    6.105444   4.818515   3.704311   2.491568   1.418461
    11  N    1.362899   2.396192   3.625370   4.723105   6.031267
    12  C    2.317649   3.612345   4.730600   5.918816   7.152674
    13  C    2.788536   4.216632   5.073360   6.362080   7.420990
    14  C    2.431021   3.748225   4.276216   5.589808   6.464450
    15  C    1.430890   2.500075   2.899787   4.212592   5.105517
    16  H    2.158866   1.102098   2.116346   2.625090   4.065468
    17  H    4.030928   2.605012   2.098458   1.106256   2.181163
    18  H    4.451070   3.832729   2.585291   2.705916   2.153062
    19  H    6.941098   6.264780   4.963215   4.654428   3.433808
    20  H    8.522848   7.521028   6.211317   5.389513   3.947027
    21  H    8.240282   6.970540   5.828085   4.643648   3.438719
    22  H    6.295355   4.911650   4.009158   2.697254   2.163879
    23  H    3.291510   4.453724   5.661835   6.780678   8.078053
    24  H    3.878932   5.306465   6.152967   7.447083   8.480510
    25  H    3.428374   4.643623   4.956300   6.246181   6.941321
    26  H    2.165135   2.705211   2.566498   3.798806   4.428026
                    6          7          8          9         10
     6  C    0.000000
     7  C    1.389001   0.000000
     8  C    2.432223   1.402680   0.000000
     9  C    2.786845   2.405585   1.398585   0.000000
    10  C    2.414977   2.778457   2.426907   1.392175   0.000000
    11  N    6.442441   7.819306   8.754347   8.468373   7.214523
    12  C    7.395025   8.738391   9.776421   9.606451   8.402356
    13  C    7.395601   8.657560   9.825793   9.854093   8.767047
    14  C    6.247351   7.442577   8.674923   8.837881   7.859593
    15  C    4.988124   6.248953   7.419719   7.503376   6.491835
    16  H    4.927926   6.289353   6.919203   6.344956   4.993090
    17  H    3.478043   4.629999   4.893448   4.078497   2.688899
    18  H    1.090989   2.166000   3.426157   3.877734   3.397714
    19  H    2.148191   1.093832   2.161690   3.398720   3.872278
    20  H    3.422933   2.175662   1.092445   2.170949   3.418860
    21  H    3.880723   3.400750   2.160165   1.093898   2.153038
    22  H    3.407159   3.872309   3.415458   2.157385   1.093853
    23  H    8.411707   9.770117  10.765409  10.520996   9.272112
    24  H    8.391296   9.618198  10.823433  10.902270   9.838303
    25  H    6.506452   7.577517   8.887871   9.213773   8.358108
    26  H    4.086251   5.276378   6.509583   6.729164   5.844483
                   11         12         13         14         15
    11  N    0.000000
    12  C    1.327784   0.000000
    13  C    2.415267   1.394145   0.000000
    14  C    2.793891   2.384978   1.408258   0.000000
    15  C    2.417417   2.717780   2.410359   1.378722   0.000000
    16  H    2.574617   3.900162   4.793265   4.589542   3.465577
    17  H    4.875669   6.163059   6.819187   6.236239   4.890190
    18  H    5.808206   6.634885   6.495029   5.278986   4.089217
    19  H    8.299062   9.097638   8.850990   7.551866   6.480451
    20  H    9.816000  10.811167  10.803704   9.610538   8.393378
    21  H    9.366720  10.545387  10.859564   9.881729   8.534425
    22  H    7.261666   8.520460   9.048711   8.279386   6.900759
    23  H    2.057589   1.099472   2.157363   3.389984   3.816926
    24  H    3.390493   2.171158   1.091289   2.192387   3.411720
    25  H    3.887856   3.387390   2.173632   1.093966   2.148054
    26  H    3.384325   3.806192   3.417240   2.168367   1.090074
                   16         17         18         19         20
    16  H    0.000000
    17  H    2.414881   0.000000
    18  H    4.700826   3.798843   0.000000
    19  H    7.035199   5.589076   2.490926   0.000000
    20  H    8.011464   5.966860   4.331719   2.501151   0.000000
    21  H    7.120298   4.754530   4.971573   4.307338   2.498727
    22  H    4.840098   2.425218   4.299532   4.966132   4.319097
    23  H    4.526280   6.896979   7.690372  10.164573  11.814322
    24  H    5.852909   7.909836   7.452282   9.744235  11.779414
    25  H    5.565693   7.005666   5.462696   7.528052   9.751148
    26  H    3.793734   4.664061   3.111458   5.434018   7.442531
                   21         22         23         24         25
    21  H    0.000000
    22  H    2.476975   0.000000
    23  H   11.424263   9.300973   0.000000
    24  H   11.918646  10.136509   2.499297   0.000000
    25  H   10.286625   8.889224   4.310489   2.536405   0.000000
    26  H    7.792301   6.395323   4.904700   4.343417   2.513665
                   26
    26  H    0.000000
 Stoichiometry    C13H11N2(1-)
 Framework group  C1[X(C13H11N2)]
 Deg. of freedom    72
 Full point group                 C1      NOp   1
 Largest Abelian subgroup         C1      NOp   1
 Largest concise Abelian subgroup C1      NOp   1
                         Standard orientation:                         
 ---------------------------------------------------------------------
 Center     Atomic      Atomic             Coordinates (Angstroms)
 Number     Number       Type             X           Y           Z
 ---------------------------------------------------------------------
      1          6           0        2.437006   -0.442378   -0.000192
      2          6           0        1.191720   -1.142350   -0.000336
      3          7           0        0.022212   -0.516589   -0.000251
      4          6           0       -1.135262   -1.138620   -0.000179
      5          6           0       -2.399306   -0.443507   -0.000087
      6          6           0       -2.486412    0.974395   -0.000186
      7          6           0       -3.714846    1.622682    0.000144
      8          6           0       -4.917522    0.900824    0.000532
      9          6           0       -4.853597   -0.496300    0.000503
     10          6           0       -3.626780   -1.154379    0.000158
     11          7           0        3.587720   -1.172686    0.000536
     12          6           0        4.752773   -0.535769    0.000777
     13          6           0        4.908137    0.849692    0.000308
     14          6           0        3.727730    1.617695   -0.000683
     15          6           0        2.501696    0.987049   -0.001017
     16          1           0        1.246169   -2.243103   -0.000504
     17          1           0       -1.168711   -2.244370   -0.000159
     18          1           0       -1.550612    1.535228   -0.000444
     19          1           0       -3.743824    2.716130    0.000103
     20          1           0       -5.880698    1.416312    0.000881
     21          1           0       -5.778544   -1.080326    0.000749
     22          1           0       -3.593927   -2.247739    0.000111
     23          1           0        5.645303   -1.177819    0.001430
     24          1           0        5.898224    1.308647    0.000607
     25          1           0        3.784225    2.710201   -0.001324
     26          1           0        1.560845    1.537559   -0.001892
 ---------------------------------------------------------------------
 Rotational constants (GHZ):           2.2272577           0.2187175           0.1991599
 Standard basis: def2SVP (5D, 7F)
 There are   280 symmetry adapted cartesian basis functions of A   symmetry.
 There are   265 symmetry adapted basis functions of A   symmetry.
   265 basis functions,   452 primitive gaussians,   280 cartesian basis functions
    52 alpha electrons       52 beta electrons
       nuclear repulsion energy       816.0695056281 Hartrees.
 NAtoms=   26 NActive=   26 NUniq=   26 SFac= 1.00D+00 NAtFMM=   60 NAOKFM=F Big=F
 Integral buffers will be    131072 words long.
 Raffenetti 2 integral format.
 Two-electron integral symmetry is turned on.
 Nuclear repulsion after empirical dispersion term =      816.0685472338 Hartrees.
 One-electron integrals computed using PRISM.
   1 Symmetry operations used in ECPInt.
 ECPInt:  NShTT=    7626 NPrTT=   27958 LenC2=    6779 LenP2D=   17807.
 LDataN:  DoStor=T MaxTD1= 4 Len=   56
 NBasis=   265 RedAO= T EigKep=  3.06D-04  NBF=   265
 NBsUse=   265 1.00D-06 EigRej= -1.00D+00 NBFU=   265
 Initial guess from the checkpoint file:  "vsa2_crest_conformers-1.chk"
 B after Tr=     0.000000    0.000000   -0.000000
         Rot=    1.000000    0.000056   -0.000009   -0.000204 Ang=   0.02 deg.
 ExpMin= 1.22D-01 ExpMax= 1.71D+03 ExpMxC= 2.58D+02 IAcc=3 IRadAn=         5 AccDes= 0.00D+00
 Harris functional with IExCor= 1009 and IRadAn=       5 diagonalized for initial guess.
 HarFok:  IExCor= 1009 AccDes= 0.00D+00 IRadAn=         5 IDoV= 1 UseB2=F ITyADJ=14
 ICtDFT=  3500011 ScaDFX=  1.000000  1.000000  1.000000  1.000000
 FoFCou: FMM=F IPFlag=           0 FMFlag=      100000 FMFlg1=           0
         NFxFlg=           0 DoJE=T BraDBF=F KetDBF=T FulRan=T
         wScrn=  0.000000 ICntrl=       500 IOpCl=  0 I1Cent=   200000004 NGrid=           0
         NMat0=    1 NMatS0=      1 NMatT0=    0 NMatD0=    1 NMtDS0=    0 NMtDT0=    0
 Petite list used in FoFCou.
 Requested convergence on RMS density matrix=1.00D-08 within 128 cycles.
 Requested convergence on MAX density matrix=1.00D-06.
 Requested convergence on             energy=1.00D-06.
 No special actions if energy rises.
 Integral accuracy reduced to 1.0D-05 until final iterations.
 Initial convergence to 1.0D-05 achieved.  Increase integral accuracy.
 SCF Done:  E(RM062X) =  -610.818947795     A.U. after   12 cycles
            NFock= 12  Conv=0.80D-08     -V/T= 2.0107
   1 Symmetry operations used in ECPInt.
 ECPInt:  NShTT=    7626 NPrTT=   27958 LenC2=    6779 LenP2D=   17807.
 LDataN:  DoStor=T MaxTD1= 5 Len=  102
 Calling FoFJK, ICntrl=      2127 FMM=F ISym2X=0 I1Cent= 0 IOpClX= 0 NMat=1 NMatS=1 NMatT=0.
 ***** Axes restored to original set *****
 -------------------------------------------------------------------
 Center     Atomic                   Forces (Hartrees/Bohr)
 Number     Number              X              Y              Z
 -------------------------------------------------------------------
      1        6           0.003034086    0.001134838   -0.000023931
      2        6          -0.004039762   -0.000243016    0.000003858
      3        7           0.001284688    0.001367786   -0.000008022
      4        6           0.001756965   -0.000618731   -0.000008577
      5        6           0.000044383    0.000720839    0.000001077
      6        6          -0.001135779   -0.000634385    0.000006567
      7        6           0.000545293   -0.001491228   -0.000001510
      8        6           0.000634424   -0.000263035    0.000001536
      9        6           0.001391120    0.000392480   -0.000003655
     10        6           0.000426679    0.001144217    0.000001292
     11        7          -0.000876161    0.001329235    0.000000857
     12        6          -0.002963613   -0.001327444    0.000003642
     13        6          -0.000946712    0.001256031   -0.000002140
     14        6           0.000662514   -0.001529841   -0.000006511
     15        6          -0.000205740   -0.000978498    0.000016845
     16        1           0.000911032   -0.000056087    0.000013929
     17        1          -0.000683518    0.000163435   -0.000000150
     18        1          -0.000049356    0.000030163    0.000000235
     19        1           0.000321296   -0.000158325    0.000000569
     20        1           0.000621463   -0.000240476   -0.000003135
     21        1           0.000416561   -0.000172808    0.000000146
     22        1          -0.000274127    0.000164011    0.000002980
     23        1          -0.000151335    0.000339265   -0.000001824
     24        1          -0.000446147   -0.000399383   -0.000001074
     25        1          -0.000467642   -0.000036114    0.000002886
     26        1           0.000189387    0.000107070    0.000004108
 -------------------------------------------------------------------
 Cartesian Forces:  Max     0.004039762 RMS     0.000912567

 GradGradGradGradGradGradGradGradGradGradGradGradGradGradGradGradGradGrad
 Berny optimization.
 Using GEDIIS/GDIIS optimizer.
 FormGI is forming the generalized inverse of G from B-inverse, IUseBI=4.
 Internal  Forces:  Max     0.004503000 RMS     0.001028996
 Search for a local minimum.
 Step number   2 out of a maximum of  134
 All quantities printed in internal units (Hartrees-Bohrs-Radians)
 Mixed Optimization -- RFO/linear search
 Update second derivatives using D2CorX and points    1    2
 DE= -2.76D-03 DEPred=-3.36D-03 R= 8.22D-01
 TightC=F SS=  1.41D+00  RLast= 1.29D-01 DXNew= 5.0454D-01 3.8632D-01
 Trust test= 8.22D-01 RLast= 1.29D-01 DXMaxT set to 3.86D-01
 ITU=  1  0
 Use linear search instead of GDIIS.
     Eigenvalues ---    0.01815   0.01940   0.01952   0.02022   0.02038
     Eigenvalues ---    0.02039   0.02165   0.02170   0.02201   0.02205
     Eigenvalues ---    0.02206   0.02232   0.02276   0.02285   0.02287
     Eigenvalues ---    0.02291   0.02325   0.02335   0.02343   0.02440
     Eigenvalues ---    0.02516   0.02770   0.02933   0.15771   0.16000
     Eigenvalues ---    0.16000   0.16000   0.16000   0.16000   0.16000
     Eigenvalues ---    0.16000   0.16000   0.16000   0.16057   0.21783
     Eigenvalues ---    0.22000   0.22000   0.22000   0.22375   0.22417
     Eigenvalues ---    0.23532   0.24588   0.24991   0.25000   0.25413
     Eigenvalues ---    0.32893   0.33370   0.34975   0.35328   0.35543
     Eigenvalues ---    0.35595   0.35631   0.35873   0.35915   0.36000
     Eigenvalues ---    0.36076   0.40486   0.41630   0.42469   0.42897
     Eigenvalues ---    0.44188   0.45037   0.46042   0.46755   0.47041
     Eigenvalues ---    0.48266   0.49673   0.50473   0.54101   0.60815
     Eigenvalues ---    0.63898   0.67864
 RFO step:  Lambda=-1.54454487D-04 EMin= 1.81476893D-02
 Quartic linear search produced a step of -0.13410.
 Iteration  1 RMS(Cart)=  0.02237093 RMS(Int)=  0.00003924
 Iteration  2 RMS(Cart)=  0.00008072 RMS(Int)=  0.00000090
 Iteration  3 RMS(Cart)=  0.00000000 RMS(Int)=  0.00000090
 Variable       Old X    -DE/DX   Delta X   Delta X   Delta X     New X
                                 (Linear)    (Quad)   (Total)
    R1        2.69953  -0.00193  -0.00594   0.00312  -0.00282   2.69671
    R2        2.57551  -0.00339  -0.00122  -0.00426  -0.00548   2.57002
    R3        2.70399  -0.00183  -0.00248  -0.00098  -0.00346   2.70053
    R4        2.50652  -0.00450  -0.00200  -0.00394  -0.00594   2.50059
    R5        2.08266   0.00010   0.00019   0.00005   0.00024   2.08290
    R6        2.48315  -0.00306  -0.00199  -0.00174  -0.00373   2.47943
    R7        2.72605  -0.00284  -0.00554   0.00059  -0.00495   2.72110
    R8        2.09052  -0.00014   0.00024  -0.00066  -0.00041   2.09011
    R9        2.68450  -0.00186  -0.00305  -0.00017  -0.00322   2.68128
   R10        2.68050  -0.00210  -0.00283  -0.00086  -0.00369   2.67681
   R11        2.62483  -0.00231  -0.00350   0.00003  -0.00347   2.62136
   R12        2.06167  -0.00003  -0.00277   0.00311   0.00034   2.06201
   R13        2.65068  -0.00119  -0.00312   0.00146  -0.00165   2.64903
   R14        2.06704  -0.00017  -0.00276   0.00275  -0.00000   2.06704
   R15        2.64294  -0.00097  -0.00271   0.00143  -0.00128   2.64166
   R16        2.06442  -0.00066  -0.00287   0.00170  -0.00117   2.06325
   R17        2.63083  -0.00207  -0.00374   0.00072  -0.00302   2.62781
   R18        2.06717  -0.00026  -0.00273   0.00251  -0.00022   2.06695
   R19        2.06708  -0.00017  -0.00257   0.00254  -0.00003   2.06705
   R20        2.50915  -0.00282  -0.00208  -0.00161  -0.00369   2.50546
   R21        2.63455   0.00024  -0.00289   0.00382   0.00093   2.63548
   R22        2.07770  -0.00032  -0.00291   0.00255  -0.00036   2.07734
   R23        2.66122  -0.00180  -0.00205  -0.00085  -0.00291   2.65831
   R24        2.06224  -0.00057  -0.00281   0.00185  -0.00096   2.06128
   R25        2.60541  -0.00177  -0.00297   0.00057  -0.00240   2.60301
   R26        2.06730  -0.00006  -0.00256   0.00280   0.00024   2.06754
   R27        2.05994  -0.00011  -0.00278   0.00293   0.00015   2.06009
    A1        2.06400  -0.00076  -0.00112  -0.00112  -0.00224   2.06175
    A2        2.12810  -0.00112  -0.00034  -0.00327  -0.00361   2.12449
    A3        2.09109   0.00188   0.00146   0.00439   0.00586   2.09694
    A4        2.13821  -0.00267  -0.00165  -0.00865  -0.01030   2.12791
    A5        2.03346   0.00039   0.00189  -0.00198  -0.00009   2.03337
    A6        2.11152   0.00228  -0.00024   0.01063   0.01039   2.12191
    A7        2.15717  -0.00212  -0.00306  -0.00385  -0.00691   2.15025
    A8        2.14570  -0.00271  -0.00160  -0.00885  -0.01046   2.13524
    A9        2.09416   0.00207   0.00114   0.00792   0.00907   2.10323
   A10        2.04333   0.00064   0.00046   0.00093   0.00139   2.04472
   A11        2.13493  -0.00075  -0.00131  -0.00105  -0.00236   2.13257
   A12        2.11388   0.00003  -0.00031   0.00052   0.00021   2.11409
   A13        2.03438   0.00073   0.00163   0.00053   0.00216   2.03653
   A14        2.11774  -0.00018  -0.00049  -0.00026  -0.00075   2.11699
   A15        2.04935   0.00014   0.00067  -0.00005   0.00061   2.04996
   A16        2.11609   0.00004  -0.00018   0.00032   0.00014   2.11623
   A17        2.11543  -0.00011  -0.00119   0.00103  -0.00017   2.11526
   A18        2.08288  -0.00027   0.00078  -0.00248  -0.00170   2.08118
   A19        2.08487   0.00038   0.00041   0.00146   0.00186   2.08674
   A20        2.06565  -0.00004   0.00178  -0.00192  -0.00014   2.06550
   A21        2.10961  -0.00006  -0.00096   0.00062  -0.00034   2.10927
   A22        2.10793   0.00010  -0.00082   0.00130   0.00049   2.10841
   A23        2.10887  -0.00001  -0.00062   0.00089   0.00027   2.10914
   A24        2.08827   0.00039   0.00033   0.00161   0.00194   2.09022
   A25        2.08604  -0.00038   0.00029  -0.00251  -0.00221   2.08383
   A26        2.12431  -0.00038  -0.00110  -0.00026  -0.00136   2.12295
   A27        2.06569   0.00047   0.00075   0.00141   0.00215   2.06785
   A28        2.09319  -0.00008   0.00035  -0.00114  -0.00079   2.09239
   A29        2.07578  -0.00119  -0.00175  -0.00294  -0.00469   2.07109
   A30        2.18276   0.00045  -0.00005   0.00176   0.00171   2.18447
   A31        2.01770  -0.00002  -0.00247   0.00297   0.00051   2.01820
   A32        2.08273  -0.00042   0.00252  -0.00474  -0.00222   2.08051
   A33        2.03594  -0.00007   0.00168  -0.00152   0.00016   2.03610
   A34        2.11653  -0.00014  -0.00029  -0.00080  -0.00109   2.11545
   A35        2.13071   0.00021  -0.00139   0.00232   0.00093   2.13164
   A36        2.08969  -0.00054  -0.00136   0.00018  -0.00118   2.08851
   A37        2.09595   0.00075   0.00011   0.00316   0.00327   2.09921
   A38        2.09755  -0.00021   0.00125  -0.00334  -0.00208   2.09546
   A39        2.09110  -0.00052   0.00002  -0.00188  -0.00185   2.08925
   A40        2.05498   0.00045  -0.00000   0.00198   0.00197   2.05695
   A41        2.13710   0.00007  -0.00002  -0.00010  -0.00012   2.13698
    D1        3.14090   0.00001  -0.00020   0.00052   0.00032   3.14122
    D2       -0.00067   0.00001  -0.00008   0.00038   0.00031  -0.00037
    D3       -0.00088   0.00001  -0.00016   0.00071   0.00054  -0.00034
    D4        3.14073   0.00001  -0.00004   0.00057   0.00053   3.14126
    D5       -3.14151   0.00000   0.00006  -0.00003   0.00003  -3.14147
    D6        0.00027  -0.00000   0.00002  -0.00021  -0.00018   0.00009
    D7        3.14146   0.00000  -0.00003   0.00004   0.00001   3.14147
    D8       -0.00013   0.00000  -0.00005   0.00004  -0.00001  -0.00014
    D9       -0.00032   0.00001   0.00001   0.00022   0.00023  -0.00009
   D10        3.14127   0.00000  -0.00001   0.00023   0.00022   3.14149
   D11       -3.14141  -0.00001   0.00009  -0.00027  -0.00018   3.14159
   D12        0.00016  -0.00001  -0.00004  -0.00013  -0.00017  -0.00001
   D13       -3.14159  -0.00000  -0.00024   0.00013  -0.00011   3.14148
   D14        0.00003  -0.00000  -0.00009  -0.00001  -0.00009  -0.00006
   D15        0.00010  -0.00000   0.00006  -0.00011  -0.00005   0.00005
   D16       -3.14145  -0.00000   0.00013  -0.00020  -0.00007  -3.14152
   D17       -3.14152  -0.00000  -0.00009   0.00002  -0.00007  -3.14159
   D18        0.00011  -0.00000  -0.00002  -0.00007  -0.00009   0.00003
   D19       -3.14139  -0.00000   0.00009  -0.00022  -0.00013  -3.14152
   D20        0.00011  -0.00000   0.00007  -0.00013  -0.00006   0.00005
   D21        0.00016  -0.00000   0.00002  -0.00013  -0.00011   0.00005
   D22       -3.14152  -0.00000   0.00000  -0.00004  -0.00004  -3.14156
   D23        3.14138   0.00000  -0.00009   0.00023   0.00014   3.14152
   D24       -0.00017   0.00000  -0.00007   0.00017   0.00010  -0.00007
   D25       -0.00018   0.00000  -0.00002   0.00015   0.00013  -0.00005
   D26        3.14146   0.00000   0.00000   0.00008   0.00008   3.14154
   D27       -0.00005   0.00000  -0.00000   0.00003   0.00002  -0.00002
   D28        3.14154   0.00000  -0.00001   0.00005   0.00005   3.14159
   D29       -3.14155  -0.00000   0.00001  -0.00006  -0.00005   3.14159
   D30        0.00004  -0.00000   0.00001  -0.00004  -0.00003   0.00002
   D31       -0.00006   0.00000  -0.00001   0.00006   0.00005  -0.00001
   D32        3.14150   0.00000  -0.00001   0.00007   0.00006   3.14156
   D33        3.14153   0.00000  -0.00001   0.00004   0.00003   3.14156
   D34       -0.00009   0.00000  -0.00000   0.00004   0.00004  -0.00006
   D35        0.00005  -0.00000   0.00001  -0.00005  -0.00003   0.00002
   D36       -3.14154  -0.00000   0.00000  -0.00004  -0.00004  -3.14157
   D37       -3.14151  -0.00000   0.00001  -0.00005  -0.00004  -3.14155
   D38        0.00009  -0.00000  -0.00000  -0.00005  -0.00005   0.00004
   D39        0.00007  -0.00000   0.00000  -0.00006  -0.00006   0.00001
   D40       -3.14156  -0.00000  -0.00002   0.00000  -0.00002  -3.14158
   D41       -3.14153  -0.00000   0.00001  -0.00007  -0.00005  -3.14158
   D42        0.00003  -0.00000  -0.00001   0.00000  -0.00001   0.00001
   D43       -0.00003   0.00000  -0.00004   0.00005   0.00002  -0.00001
   D44        3.14153   0.00000  -0.00002   0.00011   0.00009  -3.14157
   D45       -0.00016   0.00000   0.00002   0.00009   0.00010  -0.00006
   D46        3.14153   0.00000   0.00002   0.00002   0.00004   3.14156
   D47        3.14147   0.00000  -0.00000   0.00003   0.00003   3.14150
   D48       -0.00003  -0.00000  -0.00000  -0.00003  -0.00004  -0.00007
   D49        0.00010  -0.00000   0.00002  -0.00007  -0.00005   0.00005
   D50       -3.14135  -0.00000   0.00001  -0.00015  -0.00015  -3.14150
   D51       -3.14159   0.00000   0.00002  -0.00000   0.00001  -3.14157
   D52        0.00015  -0.00000   0.00001  -0.00009  -0.00008   0.00007
   D53        0.00013  -0.00000  -0.00003  -0.00008  -0.00011   0.00002
   D54       -3.14147  -0.00000  -0.00001  -0.00008  -0.00009  -3.14156
   D55        3.14158  -0.00000  -0.00002   0.00000  -0.00001   3.14157
   D56       -0.00002   0.00000   0.00000   0.00000   0.00000  -0.00002
         Item               Value     Threshold  Converged?
 Maximum Force            0.004503     0.000450     NO 
 RMS     Force            0.001029     0.000300     NO 
 Maximum Displacement     0.083051     0.001800     NO 
 RMS     Displacement     0.022398     0.001200     NO 
 Predicted change in Energy=-1.417293D-04
 GradGradGradGradGradGradGradGradGradGradGradGradGradGradGradGradGradGrad

                          Input orientation:                          
 ---------------------------------------------------------------------
 Center     Atomic      Atomic             Coordinates (Angstroms)
 Number     Number       Type             X           Y           Z
 ---------------------------------------------------------------------
      1          6           0        2.411348   -0.432639    0.000027
      2          6           0        1.174221   -1.143943    0.000101
      3          7           0        0.007843   -0.518994    0.000040
      4          6           0       -1.143933   -1.147407    0.000104
      5          6           0       -2.402814   -0.448368    0.000173
      6          6           0       -2.480637    0.968367    0.000117
      7          6           0       -3.703721    1.622811    0.000273
      8          6           0       -4.909639    0.908096    0.000464
      9          6           0       -4.853308   -0.488675    0.000478
     10          6           0       -3.631655   -1.152954    0.000328
     11          7           0        3.565032   -1.152780    0.000544
     12          6           0        4.720544   -0.502687    0.000617
     13          6           0        4.861456    0.884813    0.000192
     14          6           0        3.674496    1.639787   -0.000429
     15          6           0        2.456908    0.995695   -0.000529
     16          1           0        1.239475   -2.244234    0.000217
     17          1           0       -1.180392   -2.252843    0.000153
     18          1           0       -1.541406    1.523793   -0.000034
     19          1           0       -3.724581    2.716442    0.000228
     20          1           0       -5.869209    1.428966    0.000619
     21          1           0       -5.780177   -1.069425    0.000607
     22          1           0       -3.605883   -2.246485    0.000326
     23          1           0        5.620984   -1.133260    0.001016
     24          1           0        5.846739    1.352811    0.000310
     25          1           0        3.716165    2.733087   -0.000878
     26          1           0        1.509791    1.535517   -0.001031
 ---------------------------------------------------------------------
                    Distance matrix (angstroms):
                    1          2          3          4          5
     1  C    0.000000
     2  C    1.427037   0.000000
     3  N    2.405056   1.323253   0.000000
     4  C    3.626419   2.318157   1.312056   0.000000
     5  C    4.814188   3.644037   2.411691   1.439944   0.000000
     6  C    5.088648   4.221356   2.899100   2.502655   1.418871
     7  C    6.451274   5.607963   4.285211   3.771820   2.445841
     8  C    7.442743   6.420609   5.120372   4.290179   2.850292
     9  C    7.264872   6.063042   4.861245   3.767411   2.450825
    10  C    6.085782   4.805885   3.694299   2.487728   1.416506
    11  N    1.359996   2.390827   3.613209   4.708968   6.009275
    12  C    2.310259   3.603834   4.712730   5.899810   7.123566
    13  C    2.781854   4.208509   5.052548   6.339923   7.385594
    14  C    2.427034   3.741728   4.254960   5.566481   6.426048
    15  C    1.429060   2.494661   2.879619   4.190339   5.069736
    16  H    2.157583   1.102225   2.119757   2.623674   4.060961
    17  H    4.026628   2.602664   2.101935   1.106037   2.179552
    18  H    4.410430   3.806763   2.563816   2.700611   2.152079
    19  H    6.896835   6.237053   4.939538   4.646405   3.429736
    20  H    8.487237   7.498651   6.191469   5.382001   3.942115
    21  H    8.216239   6.954798   5.814133   4.636900   3.433991
    22  H    6.284672   4.905609   4.005401   2.696140   2.163469
    23  H    3.285214   4.446775   5.646652   6.764932   8.052975
    24  H    3.871658   5.297754   6.131587   7.424324   8.443895
    25  H    3.424087   4.636037   4.932311   6.219228   6.896635
    26  H    2.164819   2.700391   2.544969   3.773637   4.386831
                    6          7          8          9         10
     6  C    0.000000
     7  C    1.387166   0.000000
     8  C    2.429749   1.401804   0.000000
     9  C    2.784338   2.404147   1.397907   0.000000
    10  C    2.413472   2.776700   2.425113   1.390576   0.000000
    11  N    6.406979   7.780660   8.721654   8.444494   7.196687
    12  C    7.349899   8.688267   9.732971   9.573862   8.377474
    13  C    7.342569   8.596912   9.771122   9.811376   8.734153
    14  C    6.191646   7.378236   8.615262   8.789414   7.821716
    15  C    4.937621   6.192465   7.367068   7.459397   6.456570
    16  H    4.915287   6.276084   6.910050   6.340662   4.991873
    17  H    3.473735   4.624704   4.888642   4.074629   2.686717
    18  H    1.091171   2.164581   3.424043   3.875400   3.396191
    19  H    2.145498   1.093830   2.162053   3.398058   3.870512
    20  H    3.419732   2.174147   1.091824   2.170115   3.416571
    21  H    3.878087   3.399972   2.160655   1.093781   2.150145
    22  H    3.406091   3.870533   3.413380   2.155450   1.093835
    23  H    8.369773   9.723479  10.726656  10.494106   9.252659
    24  H    8.336245   9.554275  10.765566  10.857350   9.804019
    25  H    6.443183   7.502495   8.816750   9.155087   8.312146
    26  H    4.030531   5.214243   6.450018   6.677303   5.801926
                   11         12         13         14         15
    11  N    0.000000
    12  C    1.325832   0.000000
    13  C    2.415058   1.394637   0.000000
    14  C    2.794712   2.384201   1.406719   0.000000
    15  C    2.417413   2.714626   2.407103   1.377453   0.000000
    16  H    2.568947   3.892407   4.786406   4.584207   3.461110
    17  H    4.871261   6.155005   6.807996   6.222741   4.876776
    18  H    5.765393   6.581690   6.434667   5.217192   4.033039
    19  H    8.252838   9.037861   8.779231   7.477000   6.416524
    20  H    9.781120  10.764486  10.744453   9.546033   8.337383
    21  H    9.345581  10.516004  10.819584   9.835176   8.492014
    22  H    7.253841   8.507069   9.027783   8.252699   6.875258
    23  H    2.056044   1.099279   2.156270   3.388009   3.813636
    24  H    3.388830   2.170526   1.090781   2.191117   3.408590
    25  H    3.888805   3.388068   2.174352   1.094093   2.145754
    26  H    3.383926   3.803053   3.414246   2.167215   1.090155
                   16         17         18         19         20
    16  H    0.000000
    17  H    2.419882   0.000000
    18  H    4.683090   3.793852   0.000000
    19  H    7.017846   5.582714   2.487703   0.000000
    20  H    8.001612   5.961604   4.328842   2.501405   0.000000
    21  H    7.117281   4.749579   4.969101   4.307931   2.499977
    22  H    4.845359   2.425500   4.298496   4.964347   4.316432
    23  H    4.520164   6.892907   7.639356  10.107412  11.772405
    24  H    5.845136   7.898183   7.390123   9.667970  11.716195
    25  H    5.559471   6.988259   5.394854   7.440765   9.673683
    26  H    3.789405   4.646370   3.051220   5.365933   7.379770
                   21         22         23         24         25
    21  H    0.000000
    22  H    2.472453   0.000000
    23  H   11.401339   9.293780   0.000000
    24  H   11.876548  10.114692   2.496300   0.000000
    25  H   10.229351   8.854859   4.310101   2.538603   0.000000
    26  H    7.741406   6.361892   4.901456   4.340794   2.510431
                   26
    26  H    0.000000
 Stoichiometry    C13H11N2(1-)
 Framework group  C1[X(C13H11N2)]
 Deg. of freedom    72
 Full point group                 C1      NOp   1
 Largest Abelian subgroup         C1      NOp   1
 Largest concise Abelian subgroup C1      NOp   1
                         Standard orientation:                         
 ---------------------------------------------------------------------
 Center     Atomic      Atomic             Coordinates (Angstroms)
 Number     Number       Type             X           Y           Z
 ---------------------------------------------------------------------
      1          6           0        2.426787   -0.447800   -0.000139
      2          6           0        1.187667   -1.155626   -0.000065
      3          7           0        0.023049   -0.527404   -0.000126
      4          6           0       -1.130488   -1.152580   -0.000062
      5          6           0       -2.387401   -0.450007    0.000007
      6          6           0       -2.461244    0.966941   -0.000049
      7          6           0       -3.682485    1.624817    0.000107
      8          6           0       -4.890405    0.913493    0.000298
      9          6           0       -4.837998   -0.483431    0.000312
     10          6           0       -3.618215   -1.151139    0.000162
     11          7           0        3.578444   -1.171178    0.000378
     12          6           0        4.735777   -0.524333    0.000451
     13          6           0        4.880586    0.862766    0.000026
     14          6           0        3.695751    1.621070   -0.000595
     15          6           0        2.476359    0.980400   -0.000695
     16          1           0        1.249830   -2.256097    0.000051
     17          1           0       -1.170051   -2.257908   -0.000013
     18          1           0       -1.520456    1.519727   -0.000200
     19          1           0       -3.700273    2.718503    0.000062
     20          1           0       -5.848509    1.437055    0.000453
     21          1           0       -5.766494   -1.061576    0.000441
     22          1           0       -3.595515   -2.244738    0.000160
     23          1           0        5.634442   -1.157433    0.000850
     24          1           0        5.867179    1.327994    0.000144
     25          1           0        3.740491    2.714249   -0.001044
     26          1           0        1.530762    1.522880   -0.001198
 ---------------------------------------------------------------------
 Rotational constants (GHZ):           2.2165268           0.2210073           0.2009690
 Standard basis: def2SVP (5D, 7F)
 There are   280 symmetry adapted cartesian basis functions of A   symmetry.
 There are   265 symmetry adapted basis functions of A   symmetry.
   265 basis functions,   452 primitive gaussians,   280 cartesian basis functions
    52 alpha electrons       52 beta electrons
       nuclear repulsion energy       818.0166535868 Hartrees.
 NAtoms=   26 NActive=   26 NUniq=   26 SFac= 1.00D+00 NAtFMM=   60 NAOKFM=F Big=F
 Integral buffers will be    131072 words long.
 Raffenetti 2 integral format.
 Two-electron integral symmetry is turned on.
 Nuclear repulsion after empirical dispersion term =      818.0156927873 Hartrees.
 One-electron integrals computed using PRISM.
   1 Symmetry operations used in ECPInt.
 ECPInt:  NShTT=    7626 NPrTT=   27958 LenC2=    6783 LenP2D=   17822.
 LDataN:  DoStor=T MaxTD1= 4 Len=   56
 NBasis=   265 RedAO= T EigKep=  3.03D-04  NBF=   265
 NBsUse=   265 1.00D-06 EigRej= -1.00D+00 NBFU=   265
 Initial guess from the checkpoint file:  "vsa2_crest_conformers-1.chk"
 B after Tr=    -0.000000   -0.000000    0.000000
         Rot=    1.000000    0.000001   -0.000001    0.000017 Ang=   0.00 deg.
 ExpMin= 1.22D-01 ExpMax= 1.71D+03 ExpMxC= 2.58D+02 IAcc=3 IRadAn=         5 AccDes= 0.00D+00
 Harris functional with IExCor= 1009 and IRadAn=       5 diagonalized for initial guess.
 HarFok:  IExCor= 1009 AccDes= 0.00D+00 IRadAn=         5 IDoV= 1 UseB2=F ITyADJ=14
 ICtDFT=  3500011 ScaDFX=  1.000000  1.000000  1.000000  1.000000
 FoFCou: FMM=F IPFlag=           0 FMFlag=      100000 FMFlg1=           0
         NFxFlg=           0 DoJE=T BraDBF=F KetDBF=T FulRan=T
         wScrn=  0.000000 ICntrl=       500 IOpCl=  0 I1Cent=   200000004 NGrid=           0
         NMat0=    1 NMatS0=      1 NMatT0=    0 NMatD0=    1 NMtDS0=    0 NMtDT0=    0
 Petite list used in FoFCou.
 Requested convergence on RMS density matrix=1.00D-08 within 128 cycles.
 Requested convergence on MAX density matrix=1.00D-06.
 Requested convergence on             energy=1.00D-06.
 No special actions if energy rises.
 Integral accuracy reduced to 1.0D-05 until final iterations.
 Initial convergence to 1.0D-05 achieved.  Increase integral accuracy.
 SCF Done:  E(RM062X) =  -610.819091226     A.U. after   11 cycles
            NFock= 11  Conv=0.80D-08     -V/T= 2.0106
   1 Symmetry operations used in ECPInt.
 ECPInt:  NShTT=    7626 NPrTT=   27958 LenC2=    6783 LenP2D=   17822.
 LDataN:  DoStor=T MaxTD1= 5 Len=  102
 Calling FoFJK, ICntrl=      2127 FMM=F ISym2X=0 I1Cent= 0 IOpClX= 0 NMat=1 NMatS=1 NMatT=0.
 ***** Axes restored to original set *****
 -------------------------------------------------------------------
 Center     Atomic                   Forces (Hartrees/Bohr)
 Number     Number              X              Y              Z
 -------------------------------------------------------------------
      1        6           0.000934752    0.000272891    0.000006525
      2        6          -0.000959103   -0.000040623   -0.000004708
      3        7           0.000790563   -0.000151338   -0.000004072
      4        6          -0.000666958   -0.000378709   -0.000000714
      5        6          -0.000130192   -0.000082370   -0.000000579
      6        6          -0.000200813    0.000216349    0.000001559
      7        6           0.000099147   -0.000276271   -0.000002456
      8        6          -0.000079074   -0.000099949    0.000001677
      9        6           0.000102721    0.000192971   -0.000000821
     10        6           0.000002211    0.000225532   -0.000000942
     11        7           0.000147140    0.000648626   -0.000003459
     12        6          -0.000303415   -0.000510470   -0.000003793
     13        6          -0.000116560    0.000354461    0.000000042
     14        6           0.000491932   -0.000175293   -0.000001514
     15        6          -0.000417483   -0.000120330    0.000001546
     16        1           0.000211266    0.000143482    0.000004283
     17        1          -0.000056787    0.000242562    0.000001339
     18        1          -0.000223588   -0.000109823    0.000000872
     19        1           0.000068321   -0.000129613    0.000000865
     20        1           0.000203550   -0.000088595   -0.000001324
     21        1           0.000148863    0.000009107    0.000000233
     22        1          -0.000106570    0.000150900    0.000001340
     23        1           0.000038525    0.000219470    0.000001963
     24        1          -0.000131360   -0.000253612   -0.000000941
     25        1          -0.000147125   -0.000108405    0.000001735
     26        1           0.000300039   -0.000150951    0.000001346
 -------------------------------------------------------------------
 Cartesian Forces:  Max     0.000959103 RMS     0.000263303

 GradGradGradGradGradGradGradGradGradGradGradGradGradGradGradGradGradGrad
 Berny optimization.
 Using GEDIIS/GDIIS optimizer.
 FormGI is forming the generalized inverse of G from B-inverse, IUseBI=4.
 Internal  Forces:  Max     0.000807116 RMS     0.000171757
 Search for a local minimum.
 Step number   3 out of a maximum of  134
 All quantities printed in internal units (Hartrees-Bohrs-Radians)
 Mixed Optimization -- En-DIIS/RFO-DIIS
 Update second derivatives using D2CorX and points    1    2    3
 DE= -1.43D-04 DEPred=-1.42D-04 R= 1.01D+00
 TightC=F SS=  1.41D+00  RLast= 2.83D-02 DXNew= 6.4970D-01 8.5032D-02
 Trust test= 1.01D+00 RLast= 2.83D-02 DXMaxT set to 3.86D-01
 ITU=  1  1  0
 Use linear search instead of GDIIS.
     Eigenvalues ---    0.01815   0.01940   0.01952   0.02021   0.02038
     Eigenvalues ---    0.02039   0.02165   0.02170   0.02204   0.02204
     Eigenvalues ---    0.02206   0.02232   0.02276   0.02287   0.02288
     Eigenvalues ---    0.02291   0.02325   0.02335   0.02343   0.02440
     Eigenvalues ---    0.02515   0.02770   0.02933   0.14947   0.16000
     Eigenvalues ---    0.16000   0.16000   0.16000   0.16000   0.16000
     Eigenvalues ---    0.16000   0.16000   0.16001   0.16060   0.21730
     Eigenvalues ---    0.22000   0.22000   0.22000   0.22358   0.22552
     Eigenvalues ---    0.23587   0.24510   0.24983   0.25000   0.27183
     Eigenvalues ---    0.32885   0.33384   0.34997   0.35427   0.35542
     Eigenvalues ---    0.35597   0.35632   0.35842   0.35951   0.35985
     Eigenvalues ---    0.36117   0.40229   0.41571   0.42468   0.42801
     Eigenvalues ---    0.43983   0.45404   0.46075   0.46570   0.47254
     Eigenvalues ---    0.48258   0.49546   0.50048   0.53178   0.60283
     Eigenvalues ---    0.62608   0.70584
 RFO step:  Lambda=-1.02498739D-05 EMin= 1.81476739D-02
 Quartic linear search produced a step of -0.00525.
 Iteration  1 RMS(Cart)=  0.00201415 RMS(Int)=  0.00000112
 Iteration  2 RMS(Cart)=  0.00000210 RMS(Int)=  0.00000001
 Iteration  3 RMS(Cart)=  0.00000000 RMS(Int)=  0.00000001
 Variable       Old X    -DE/DX   Delta X   Delta X   Delta X     New X
                                 (Linear)    (Quad)   (Total)
    R1        2.69671   0.00079   0.00001   0.00168   0.00169   2.69840
    R2        2.57002  -0.00024   0.00003  -0.00071  -0.00068   2.56934
    R3        2.70053  -0.00033   0.00002  -0.00091  -0.00089   2.69964
    R4        2.50059  -0.00010   0.00003  -0.00041  -0.00038   2.50020
    R5        2.08290  -0.00013  -0.00000  -0.00038  -0.00038   2.08252
    R6        2.47943   0.00081   0.00002   0.00107   0.00109   2.48052
    R7        2.72110   0.00010   0.00003   0.00006   0.00008   2.72118
    R8        2.09011  -0.00024   0.00000  -0.00075  -0.00075   2.08936
    R9        2.68128  -0.00012   0.00002  -0.00038  -0.00036   2.68092
   R10        2.67681  -0.00020   0.00002  -0.00058  -0.00056   2.67625
   R11        2.62136  -0.00039   0.00002  -0.00090  -0.00089   2.62048
   R12        2.06201  -0.00025  -0.00000  -0.00064  -0.00064   2.06137
   R13        2.64903  -0.00022   0.00001  -0.00052  -0.00052   2.64851
   R14        2.06704  -0.00013   0.00000  -0.00034  -0.00034   2.06670
   R15        2.64166  -0.00037   0.00001  -0.00081  -0.00080   2.64086
   R16        2.06325  -0.00022   0.00001  -0.00064  -0.00063   2.06262
   R17        2.62781  -0.00028   0.00002  -0.00065  -0.00064   2.62717
   R18        2.06695  -0.00013   0.00000  -0.00034  -0.00034   2.06661
   R19        2.06705  -0.00015   0.00000  -0.00040  -0.00040   2.06665
   R20        2.50546  -0.00044   0.00002  -0.00087  -0.00085   2.50461
   R21        2.63548  -0.00011  -0.00000  -0.00016  -0.00017   2.63532
   R22        2.07734  -0.00010   0.00000  -0.00026  -0.00025   2.07708
   R23        2.65831  -0.00032   0.00002  -0.00078  -0.00077   2.65755
   R24        2.06128  -0.00023   0.00001  -0.00064  -0.00064   2.06064
   R25        2.60301   0.00006   0.00001   0.00007   0.00008   2.60309
   R26        2.06754  -0.00011  -0.00000  -0.00027  -0.00028   2.06726
   R27        2.06009  -0.00033  -0.00000  -0.00088  -0.00088   2.05921
    A1        2.06175   0.00008   0.00001   0.00022   0.00023   2.06198
    A2        2.12449   0.00001   0.00002  -0.00012  -0.00010   2.12439
    A3        2.09694  -0.00009  -0.00003  -0.00010  -0.00013   2.09681
    A4        2.12791   0.00021   0.00005   0.00049   0.00054   2.12845
    A5        2.03337  -0.00033   0.00000  -0.00193  -0.00193   2.03144
    A6        2.12191   0.00012  -0.00005   0.00144   0.00139   2.12330
    A7        2.15025   0.00063   0.00004   0.00222   0.00226   2.15251
    A8        2.13524   0.00007   0.00005  -0.00014  -0.00008   2.13515
    A9        2.10323   0.00003  -0.00005   0.00066   0.00061   2.10384
   A10        2.04472  -0.00010  -0.00001  -0.00052  -0.00053   2.04419
   A11        2.13257   0.00009   0.00001   0.00024   0.00025   2.13281
   A12        2.11409   0.00009  -0.00000   0.00036   0.00036   2.11444
   A13        2.03653  -0.00018  -0.00001  -0.00059  -0.00061   2.03593
   A14        2.11699   0.00004   0.00000   0.00014   0.00014   2.11713
   A15        2.04996   0.00000  -0.00000   0.00006   0.00006   2.05002
   A16        2.11623  -0.00004  -0.00000  -0.00020  -0.00020   2.11604
   A17        2.11526   0.00010   0.00000   0.00040   0.00041   2.11567
   A18        2.08118  -0.00012   0.00001  -0.00070  -0.00069   2.08049
   A19        2.08674   0.00002  -0.00001   0.00030   0.00029   2.08703
   A20        2.06550  -0.00009   0.00000  -0.00048  -0.00048   2.06502
   A21        2.10927   0.00003   0.00000   0.00012   0.00012   2.10939
   A22        2.10841   0.00006  -0.00000   0.00037   0.00037   2.10878
   A23        2.10914   0.00003  -0.00000   0.00014   0.00014   2.10928
   A24        2.09022   0.00006  -0.00001   0.00050   0.00049   2.09071
   A25        2.08383  -0.00009   0.00001  -0.00064  -0.00063   2.08320
   A26        2.12295   0.00010   0.00001   0.00040   0.00041   2.12335
   A27        2.06785   0.00006  -0.00001   0.00052   0.00051   2.06836
   A28        2.09239  -0.00015   0.00000  -0.00092  -0.00092   2.09148
   A29        2.07109   0.00021   0.00002   0.00054   0.00056   2.07166
   A30        2.18447  -0.00007  -0.00001  -0.00029  -0.00030   2.18418
   A31        2.01820   0.00025  -0.00000   0.00156   0.00155   2.01975
   A32        2.08051  -0.00018   0.00001  -0.00127  -0.00126   2.07925
   A33        2.03610  -0.00004  -0.00000  -0.00016  -0.00016   2.03593
   A34        2.11545  -0.00015   0.00001  -0.00106  -0.00106   2.11439
   A35        2.13164   0.00020  -0.00000   0.00122   0.00122   2.13286
   A36        2.08851   0.00004   0.00001   0.00026   0.00026   2.08878
   A37        2.09921   0.00013  -0.00002   0.00093   0.00091   2.10012
   A38        2.09546  -0.00017   0.00001  -0.00119  -0.00118   2.09429
   A39        2.08925  -0.00006   0.00001  -0.00025  -0.00024   2.08902
   A40        2.05695   0.00005  -0.00001   0.00029   0.00028   2.05723
   A41        2.13698   0.00001   0.00000  -0.00004  -0.00004   2.13694
    D1        3.14122   0.00001  -0.00000   0.00033   0.00033   3.14155
    D2       -0.00037   0.00001  -0.00000   0.00030   0.00030  -0.00007
    D3       -0.00034   0.00000  -0.00000   0.00023   0.00023  -0.00011
    D4        3.14126   0.00000  -0.00000   0.00021   0.00020   3.14146
    D5       -3.14147  -0.00000  -0.00000  -0.00013  -0.00013   3.14158
    D6        0.00009  -0.00000   0.00000  -0.00003  -0.00003   0.00005
    D7        3.14147   0.00000  -0.00000   0.00012   0.00012   3.14159
    D8       -0.00014   0.00000   0.00000   0.00013   0.00013  -0.00000
    D9       -0.00009   0.00000  -0.00000   0.00002   0.00002  -0.00007
   D10        3.14149   0.00000  -0.00000   0.00003   0.00003   3.14152
   D11        3.14159   0.00000   0.00000   0.00001   0.00002  -3.14158
   D12       -0.00001   0.00000   0.00000   0.00004   0.00004   0.00004
   D13        3.14148   0.00000   0.00000   0.00011   0.00012  -3.14159
   D14       -0.00006   0.00000   0.00000   0.00006   0.00006  -0.00000
   D15        0.00005  -0.00000   0.00000  -0.00005  -0.00005  -0.00000
   D16       -3.14152  -0.00000   0.00000  -0.00008  -0.00008   3.14159
   D17       -3.14159   0.00000   0.00000  -0.00000  -0.00000  -3.14159
   D18        0.00003  -0.00000   0.00000  -0.00003  -0.00003  -0.00000
   D19       -3.14152  -0.00000   0.00000  -0.00008  -0.00008   3.14159
   D20        0.00005  -0.00000   0.00000  -0.00006  -0.00006  -0.00000
   D21        0.00005  -0.00000   0.00000  -0.00005  -0.00005   0.00000
   D22       -3.14156  -0.00000   0.00000  -0.00003  -0.00003  -3.14159
   D23        3.14152   0.00000  -0.00000   0.00007   0.00007   3.14159
   D24       -0.00007   0.00000  -0.00000   0.00007   0.00007  -0.00000
   D25       -0.00005   0.00000  -0.00000   0.00004   0.00004  -0.00000
   D26        3.14154   0.00000  -0.00000   0.00004   0.00004   3.14158
   D27       -0.00002   0.00000  -0.00000   0.00003   0.00002   0.00000
   D28        3.14159   0.00000  -0.00000   0.00001   0.00001  -3.14159
   D29        3.14159   0.00000   0.00000   0.00000   0.00001  -3.14159
   D30        0.00002  -0.00000   0.00000  -0.00001  -0.00001   0.00000
   D31       -0.00001   0.00000  -0.00000   0.00001   0.00001  -0.00000
   D32        3.14156   0.00000  -0.00000   0.00002   0.00002   3.14158
   D33        3.14156   0.00000  -0.00000   0.00003   0.00003   3.14159
   D34       -0.00006   0.00000  -0.00000   0.00004   0.00004  -0.00002
   D35        0.00002  -0.00000   0.00000  -0.00002  -0.00001   0.00000
   D36       -3.14157  -0.00000   0.00000  -0.00002  -0.00002  -3.14159
   D37       -3.14155  -0.00000   0.00000  -0.00003  -0.00003  -3.14158
   D38        0.00004  -0.00000   0.00000  -0.00003  -0.00003   0.00002
   D39        0.00001  -0.00000   0.00000  -0.00001  -0.00001   0.00000
   D40       -3.14158  -0.00000   0.00000  -0.00001  -0.00001  -3.14159
   D41       -3.14158  -0.00000   0.00000  -0.00001  -0.00001  -3.14159
   D42        0.00001  -0.00000   0.00000  -0.00001  -0.00001   0.00001
   D43       -0.00001   0.00000  -0.00000   0.00002   0.00002   0.00001
   D44       -3.14157  -0.00000  -0.00000  -0.00003  -0.00003   3.14159
   D45       -0.00006   0.00000  -0.00000   0.00001   0.00001  -0.00005
   D46        3.14156  -0.00000  -0.00000  -0.00001  -0.00001   3.14156
   D47        3.14150   0.00000  -0.00000   0.00007   0.00007   3.14156
   D48       -0.00007   0.00000   0.00000   0.00005   0.00005  -0.00002
   D49        0.00005  -0.00000   0.00000  -0.00003  -0.00003   0.00002
   D50       -3.14150  -0.00000   0.00000  -0.00005  -0.00005  -3.14155
   D51       -3.14157  -0.00000  -0.00000  -0.00001  -0.00001  -3.14158
   D52        0.00007  -0.00000   0.00000  -0.00003  -0.00003   0.00004
   D53        0.00002   0.00000   0.00000   0.00001   0.00001   0.00004
   D54       -3.14156   0.00000   0.00000  -0.00000  -0.00000  -3.14156
   D55        3.14157   0.00000   0.00000   0.00004   0.00004  -3.14158
   D56       -0.00002   0.00000  -0.00000   0.00002   0.00002   0.00001
         Item               Value     Threshold  Converged?
 Maximum Force            0.000807     0.000450     NO 
 RMS     Force            0.000172     0.000300     YES
 Maximum Displacement     0.006572     0.001800     NO 
 RMS     Displacement     0.002014     0.001200     NO 
 Predicted change in Energy=-5.128270D-06
 GradGradGradGradGradGradGradGradGradGradGradGradGradGradGradGradGradGrad

                          Input orientation:                          
 ---------------------------------------------------------------------
 Center     Atomic      Atomic             Coordinates (Angstroms)
 Number     Number       Type             X           Y           Z
 ---------------------------------------------------------------------
      1          6           0        2.412070   -0.432808    0.000171
      2          6           0        1.174726   -1.145532    0.000274
      3          7           0        0.007698   -0.522226    0.000235
      4          6           0       -1.145169   -1.149844    0.000342
      5          6           0       -2.403380   -0.449507    0.000292
      6          6           0       -2.480110    0.967097    0.000124
      7          6           0       -3.702187    1.622424    0.000076
      8          6           0       -4.908805    0.909428    0.000193
      9          6           0       -4.853643   -0.486965    0.000356
     10          6           0       -3.632927   -1.152261    0.000403
     11          7           0        3.566179   -1.151585    0.000274
     12          6           0        4.721003   -0.501184    0.000166
     13          6           0        4.860861    0.886334   -0.000041
     14          6           0        3.673553    1.640002   -0.000196
     15          6           0        2.456347    0.995095   -0.000114
     16          1           0        1.242953   -2.245440    0.000368
     17          1           0       -1.183318   -2.254827    0.000473
     18          1           0       -1.540779    1.521685    0.000035
     19          1           0       -3.721297    2.715908   -0.000057
     20          1           0       -5.867461    1.431279    0.000169
     21          1           0       -5.780553   -1.067310    0.000447
     22          1           0       -3.609217   -2.245628    0.000525
     23          1           0        5.622598   -1.129870    0.000263
     24          1           0        5.845982    1.353888   -0.000088
     25          1           0        3.713218    2.733230   -0.000404
     26          1           0        1.509306    1.534105   -0.000256
 ---------------------------------------------------------------------
                    Distance matrix (angstroms):
                    1          2          3          4          5
     1  C    0.000000
     2  C    1.427934   0.000000
     3  N    2.406034   1.323051   0.000000
     4  C    3.628787   2.319900   1.312634   0.000000
     5  C    4.815479   3.645174   2.412175   1.439988   0.000000
     6  C    5.088532   4.221495   2.899529   2.502699   1.418680
     7  C    6.450436   5.607661   4.285181   3.771447   2.445362
     8  C    7.442903   6.421231   5.120706   4.290169   2.850238
     9  C    7.265915   6.064235   4.861469   3.767252   2.450549
    10  C    6.087660   4.807658   3.694739   2.487759   1.416209
    11  N    1.359634   2.391460   3.613706   4.711348   6.010702
    12  C    2.309945   3.604339   4.713351   5.901927   7.124570
    13  C    2.781495   4.209046   5.053437   6.341800   7.386046
    14  C    2.426496   3.742103   4.256022   5.568063   6.426131
    15  C    1.428590   2.494962   2.880650   4.191859   5.069893
    16  H    2.156958   1.102022   2.120217   2.627443   4.064618
    17  H    4.030703   2.605937   2.102481   1.105642   2.178929
    18  H    4.409655   3.806312   2.564245   2.700662   2.151669
    19  H    6.894389   6.235524   4.938716   4.645478   3.428812
    20  H    8.486781   7.498823   6.191420   5.381657   3.941727
    21  H    8.217157   6.955719   5.813860   4.636118   3.433217
    22  H    6.288260   4.908801   4.006519   2.696716   2.163353
    23  H    3.285328   4.447899   5.647683   6.767796   8.054763
    24  H    3.870922   5.297899   6.132321   7.425959   8.444182
    25  H    3.422979   4.635595   4.932431   6.219501   6.895113
    26  H    2.164194   2.700444   2.546237   3.774893   4.386778
                    6          7          8          9         10
     6  C    0.000000
     7  C    1.386697   0.000000
     8  C    2.429380   1.401531   0.000000
     9  C    2.783515   2.403201   1.397483   0.000000
    10  C    2.412605   2.775549   2.424546   1.390239   0.000000
    11  N    6.406747   7.779734   8.721990   8.446012   7.199106
    12  C    7.349277   8.686763   9.732575   9.574656   8.379263
    13  C    7.341415   8.594628   9.769693   9.811093   8.735005
    14  C    6.190345   7.375761   8.613397   8.788462   7.821853
    15  C    4.936536   6.190403   7.365650   7.458717   6.456810
    16  H    4.917477   6.278119   6.913560   6.345133   4.996924
    17  H    3.473105   4.623611   4.887920   4.073895   2.686306
    18  H    1.090830   2.163755   3.423223   3.874241   3.395154
    19  H    2.144501   1.093651   2.161838   3.397146   3.869178
    20  H    3.419008   2.173694   1.091490   2.169675   3.415819
    21  H    3.877078   3.399158   2.160426   1.093601   2.149306
    22  H    3.405361   3.869170   3.412230   2.154412   1.093625
    23  H    8.369656   9.722486  10.727030  10.495949   9.255552
    24  H    8.335071   9.551944  10.763966  10.856828   9.804616
    25  H    6.440228   7.498142   8.812805   9.152091   8.310409
    26  H    4.029508   5.212241   6.448439   6.676215   5.801648
                   11         12         13         14         15
    11  N    0.000000
    12  C    1.325383   0.000000
    13  C    2.414397   1.394549   0.000000
    14  C    2.793651   2.383659   1.406313   0.000000
    15  C    2.416601   2.714317   2.406973   1.377496   0.000000
    16  H    2.567858   3.890920   4.785109   4.583064   3.460259
    17  H    4.875947   6.159243   6.811681   6.225664   4.879463
    18  H    5.764320   6.580419   6.433092   5.215674   4.031664
    19  H    8.250139   9.034495   8.775009   7.472709   6.412837
    20  H    9.780835  10.763363  10.742153   9.543297   8.335228
    21  H    9.347112  10.516805  10.819262   9.834107   8.491174
    22  H    7.258322   8.510913   9.030582   8.254506   6.877016
    23  H    2.056534   1.099145   2.155300   3.386882   3.813217
    24  H    3.387462   2.169533   1.090445   2.191188   3.408571
    25  H    3.887597   3.387782   2.174422   1.093948   2.144957
    26  H    3.382847   3.802289   3.413581   2.166837   1.089688
                   16         17         18         19         20
    16  H    0.000000
    17  H    2.426289   0.000000
    18  H    4.684057   3.793392   0.000000
    19  H    7.018457   5.581178   2.486127   0.000000
    20  H    8.004764   5.960585   4.327626   2.501258   0.000000
    21  H    7.121631   4.748133   4.967754   4.307351   2.500100
    22  H    4.852170   2.425916   4.297800   4.962802   4.315010
    23  H    4.519489   6.898262   7.638371  10.104374  11.772040
    24  H    5.843204   7.901511   7.388666   9.663742  11.713698
    25  H    5.557820   6.989763   5.391876   7.434535   9.668738
    26  H    3.788919   4.648250   3.050110   5.362449   7.377483
                   21         22         23         24         25
    21  H    0.000000
    22  H    2.470452   0.000000
    23  H   11.403322   9.298995   0.000000
    24  H   11.875964  10.117179   2.493784   0.000000
    25  H   10.226231   8.854778   4.309208   2.539934   0.000000
    26  H    7.740116   6.362834   4.900606   4.340419   2.509010
                   26
    26  H    0.000000
 Stoichiometry    C13H11N2(1-)
 Framework group  C1[X(C13H11N2)]
 Deg. of freedom    72
 Full point group                 C1      NOp   1
 Largest Abelian subgroup         C1      NOp   1
 Largest concise Abelian subgroup C1      NOp   1
                         Standard orientation:                         
 ---------------------------------------------------------------------
 Center     Atomic      Atomic             Coordinates (Angstroms)
 Number     Number       Type             X           Y           Z
 ---------------------------------------------------------------------
      1          6           0        2.427465   -0.447988    0.000003
      2          6           0        1.188076   -1.157149    0.000106
      3          7           0        0.022846   -0.530488    0.000066
      4          6           0       -1.131822   -1.154787    0.000174
      5          6           0       -2.388013   -0.450833    0.000124
      6          6           0       -2.460667    0.965985   -0.000044
      7          6           0       -3.680855    1.624825   -0.000092
      8          6           0       -4.889518    0.915303    0.000025
      9          6           0       -4.838374   -0.481243    0.000188
     10          6           0       -3.619577   -1.150047    0.000235
     11          7           0        3.579501   -1.170081    0.000106
     12          6           0        4.736192   -0.523005   -0.000003
     13          6           0        4.880041    0.864104   -0.000209
     14          6           0        3.694906    1.621185   -0.000364
     15          6           0        2.475849    0.979783   -0.000282
     16          1           0        1.253138   -2.257248    0.000200
     17          1           0       -1.173149   -2.259656    0.000305
     18          1           0       -1.519745    1.517869   -0.000133
     19          1           0       -3.696819    2.718359   -0.000225
     20          1           0       -5.846669    1.439910    0.000001
     21          1           0       -5.766949   -1.058919    0.000279
     22          1           0       -3.599012   -2.243479    0.000357
     23          1           0        5.635974   -1.154282    0.000095
     24          1           0        5.866502    1.328823   -0.000256
     25          1           0        3.737716    2.714295   -0.000572
     26          1           0        1.530363    1.521515   -0.000424
 ---------------------------------------------------------------------
 Rotational constants (GHZ):           2.2157314           0.2210102           0.2009648
 Standard basis: def2SVP (5D, 7F)
 There are   280 symmetry adapted cartesian basis functions of A   symmetry.
 There are   265 symmetry adapted basis functions of A   symmetry.
   265 basis functions,   452 primitive gaussians,   280 cartesian basis functions
    52 alpha electrons       52 beta electrons
       nuclear repulsion energy       818.0483590129 Hartrees.
 NAtoms=   26 NActive=   26 NUniq=   26 SFac= 1.00D+00 NAtFMM=   60 NAOKFM=F Big=F
 Integral buffers will be    131072 words long.
 Raffenetti 2 integral format.
 Two-electron integral symmetry is turned on.
 Nuclear repulsion after empirical dispersion term =      818.0473983593 Hartrees.
 One-electron integrals computed using PRISM.
   1 Symmetry operations used in ECPInt.
 ECPInt:  NShTT=    7626 NPrTT=   27958 LenC2=    6783 LenP2D=   17821.
 LDataN:  DoStor=T MaxTD1= 4 Len=   56
 NBasis=   265 RedAO= T EigKep=  3.03D-04  NBF=   265
 NBsUse=   265 1.00D-06 EigRej= -1.00D+00 NBFU=   265
 Initial guess from the checkpoint file:  "vsa2_crest_conformers-1.chk"
 B after Tr=    -0.000000   -0.000000    0.000000
         Rot=    1.000000    0.000002   -0.000000    0.000020 Ang=   0.00 deg.
 Requested convergence on RMS density matrix=1.00D-08 within 128 cycles.
 Requested convergence on MAX density matrix=1.00D-06.
 Requested convergence on             energy=1.00D-06.
 No special actions if energy rises.
 SCF Done:  E(RM062X) =  -610.819097097     A.U. after    9 cycles
            NFock=  9  Conv=0.68D-08     -V/T= 2.0106
   1 Symmetry operations used in ECPInt.
 ECPInt:  NShTT=    7626 NPrTT=   27958 LenC2=    6783 LenP2D=   17821.
 LDataN:  DoStor=T MaxTD1= 5 Len=  102
 Calling FoFJK, ICntrl=      2127 FMM=F ISym2X=0 I1Cent= 0 IOpClX= 0 NMat=1 NMatS=1 NMatT=0.
 ***** Axes restored to original set *****
 -------------------------------------------------------------------
 Center     Atomic                   Forces (Hartrees/Bohr)
 Number     Number              X              Y              Z
 -------------------------------------------------------------------
      1        6           0.000214301    0.000111186   -0.000008378
      2        6          -0.000552300    0.000085889    0.000000658
      3        7           0.000399955   -0.000130601    0.000000551
      4        6          -0.000147869   -0.000032851   -0.000000879
      5        6           0.000127693   -0.000107356   -0.000000351
      6        6           0.000007251    0.000084742    0.000000171
      7        6           0.000010007    0.000043310    0.000000023
      8        6          -0.000100251    0.000005747    0.000000647
      9        6          -0.000079141    0.000034043   -0.000000051
     10        6           0.000055439   -0.000034974   -0.000000267
     11        7           0.000021891    0.000102054    0.000000734
     12        6          -0.000060544   -0.000230570    0.000002700
     13        6          -0.000102966    0.000205116   -0.000000229
     14        6           0.000248744    0.000052568   -0.000001159
     15        6          -0.000144132   -0.000147117    0.000003774
     16        1           0.000074759   -0.000033070    0.000002139
     17        1           0.000018386    0.000008593   -0.000000064
     18        1          -0.000009908    0.000004677   -0.000000146
     19        1           0.000011335    0.000006830    0.000000225
     20        1           0.000001749    0.000014289   -0.000000617
     21        1           0.000010712   -0.000018396    0.000000123
     22        1          -0.000029774   -0.000005180    0.000000256
     23        1           0.000021910    0.000022170   -0.000000252
     24        1           0.000029060   -0.000046935   -0.000000780
     25        1          -0.000037509   -0.000003646    0.000000352
     26        1           0.000011202    0.000009482    0.000000818
 -------------------------------------------------------------------
 Cartesian Forces:  Max     0.000552300 RMS     0.000105714

 GradGradGradGradGradGradGradGradGradGradGradGradGradGradGradGradGradGrad
 Berny optimization.
 Using GEDIIS/GDIIS optimizer.
 FormGI is forming the generalized inverse of G from B-inverse, IUseBI=4.
 Internal  Forces:  Max     0.000312502 RMS     0.000049681
 Search for a local minimum.
 Step number   4 out of a maximum of  134
 All quantities printed in internal units (Hartrees-Bohrs-Radians)
 Mixed Optimization -- En-DIIS/RFO-DIIS
 Swapping is turned off.
 Update second derivatives using D2CorX and points    1    2    3    4
 DE= -5.87D-06 DEPred=-5.13D-06 R= 1.14D+00
 TightC=F SS=  1.41D+00  RLast= 6.15D-03 DXNew= 6.4970D-01 1.8461D-02
 Trust test= 1.14D+00 RLast= 6.15D-03 DXMaxT set to 3.86D-01
 ITU=  1  1  1  0
     Eigenvalues ---    0.01815   0.01940   0.01953   0.02021   0.02038
     Eigenvalues ---    0.02039   0.02165   0.02170   0.02204   0.02204
     Eigenvalues ---    0.02206   0.02232   0.02276   0.02287   0.02288
     Eigenvalues ---    0.02291   0.02324   0.02335   0.02343   0.02440
     Eigenvalues ---    0.02515   0.02770   0.02933   0.12744   0.15999
     Eigenvalues ---    0.16000   0.16000   0.16000   0.16000   0.16000
     Eigenvalues ---    0.16000   0.16000   0.16051   0.16077   0.21661
     Eigenvalues ---    0.21987   0.22000   0.22043   0.22326   0.22555
     Eigenvalues ---    0.23492   0.24543   0.24997   0.25031   0.26802
     Eigenvalues ---    0.32825   0.33482   0.35029   0.35489   0.35560
     Eigenvalues ---    0.35611   0.35634   0.35868   0.35980   0.35995
     Eigenvalues ---    0.36130   0.39223   0.41699   0.41898   0.42517
     Eigenvalues ---    0.43209   0.44504   0.46052   0.47042   0.47548
     Eigenvalues ---    0.48196   0.49357   0.51485   0.55643   0.59726
     Eigenvalues ---    0.62989   0.71082
 En-DIIS/RFO-DIIS/Sim-DIIS IScMMF=       -3 using points:     4    3
 RFO step:  Lambda=-1.01635193D-06.
 DidBck=F Rises=F RFO-DIIS coefs:    1.28017   -0.28017
 Iteration  1 RMS(Cart)=  0.00049366 RMS(Int)=  0.00000011
 Iteration  2 RMS(Cart)=  0.00000016 RMS(Int)=  0.00000000
 Variable       Old X    -DE/DX   Delta X   Delta X   Delta X     New X
                                 (Linear)    (Quad)   (Total)
    R1        2.69840   0.00022   0.00047   0.00024   0.00071   2.69912
    R2        2.56934  -0.00003  -0.00019  -0.00001  -0.00020   2.56913
    R3        2.69964  -0.00005  -0.00025   0.00000  -0.00025   2.69940
    R4        2.50020  -0.00031  -0.00011  -0.00058  -0.00068   2.49952
    R5        2.08252   0.00004  -0.00011   0.00021   0.00010   2.08262
    R6        2.48052   0.00012   0.00031  -0.00004   0.00026   2.48078
    R7        2.72118   0.00000   0.00002  -0.00004  -0.00002   2.72116
    R8        2.08936  -0.00001  -0.00021   0.00011  -0.00010   2.08926
    R9        2.68092   0.00012  -0.00010   0.00037   0.00027   2.68118
   R10        2.67625   0.00006  -0.00016   0.00024   0.00008   2.67633
   R11        2.62048   0.00006  -0.00025   0.00030   0.00005   2.62053
   R12        2.06137  -0.00001  -0.00018   0.00013  -0.00005   2.06132
   R13        2.64851   0.00007  -0.00014   0.00028   0.00013   2.64864
   R14        2.06670   0.00001  -0.00009   0.00010   0.00001   2.06671
   R15        2.64086   0.00003  -0.00022   0.00024   0.00002   2.64088
   R16        2.06262   0.00000  -0.00018   0.00014  -0.00003   2.06258
   R17        2.62717   0.00010  -0.00018   0.00036   0.00018   2.62735
   R18        2.06661   0.00000  -0.00010   0.00009  -0.00001   2.06660
   R19        2.06665   0.00001  -0.00011   0.00011   0.00000   2.06665
   R20        2.50461  -0.00007  -0.00024  -0.00001  -0.00025   2.50436
   R21        2.63532   0.00013  -0.00005   0.00038   0.00033   2.63565
   R22        2.07708   0.00000  -0.00007   0.00008   0.00001   2.07709
   R23        2.65755  -0.00008  -0.00022  -0.00006  -0.00027   2.65727
   R24        2.06064   0.00001  -0.00018   0.00015  -0.00003   2.06062
   R25        2.60309   0.00016   0.00002   0.00035   0.00037   2.60346
   R26        2.06726  -0.00000  -0.00008   0.00006  -0.00001   2.06725
   R27        2.05921  -0.00000  -0.00025   0.00018  -0.00007   2.05915
    A1        2.06198  -0.00001   0.00006  -0.00011  -0.00005   2.06194
    A2        2.12439   0.00002  -0.00003   0.00007   0.00004   2.12443
    A3        2.09681  -0.00001  -0.00004   0.00004   0.00001   2.09682
    A4        2.12845   0.00000   0.00015  -0.00021  -0.00006   2.12838
    A5        2.03144  -0.00008  -0.00054  -0.00020  -0.00074   2.03070
    A6        2.12330   0.00007   0.00039   0.00041   0.00080   2.12410
    A7        2.15251   0.00007   0.00063  -0.00020   0.00043   2.15294
    A8        2.13515   0.00002  -0.00002  -0.00002  -0.00005   2.13511
    A9        2.10384  -0.00003   0.00017  -0.00020  -0.00003   2.10381
   A10        2.04419   0.00001  -0.00015   0.00022   0.00007   2.04427
   A11        2.13281   0.00005   0.00007   0.00015   0.00022   2.13303
   A12        2.11444   0.00001   0.00010   0.00000   0.00010   2.11455
   A13        2.03593  -0.00006  -0.00017  -0.00015  -0.00032   2.03561
   A14        2.11713   0.00002   0.00004   0.00009   0.00013   2.11726
   A15        2.05002  -0.00000   0.00002  -0.00000   0.00001   2.05003
   A16        2.11604  -0.00002  -0.00006  -0.00009  -0.00014   2.11589
   A17        2.11567   0.00002   0.00011   0.00003   0.00014   2.11581
   A18        2.08049  -0.00002  -0.00019  -0.00002  -0.00021   2.08028
   A19        2.08703   0.00000   0.00008  -0.00001   0.00007   2.08710
   A20        2.06502  -0.00003  -0.00014  -0.00010  -0.00024   2.06478
   A21        2.10939   0.00001   0.00003  -0.00001   0.00002   2.10941
   A22        2.10878   0.00003   0.00010   0.00011   0.00022   2.10900
   A23        2.10928   0.00002   0.00004   0.00008   0.00012   2.10939
   A24        2.09071   0.00001   0.00014   0.00006   0.00019   2.09090
   A25        2.08320  -0.00003  -0.00018  -0.00013  -0.00031   2.08289
   A26        2.12335   0.00003   0.00011   0.00006   0.00017   2.12352
   A27        2.06836   0.00002   0.00014   0.00007   0.00021   2.06857
   A28        2.09148  -0.00004  -0.00026  -0.00012  -0.00038   2.09110
   A29        2.07166   0.00005   0.00016  -0.00000   0.00015   2.07181
   A30        2.18418  -0.00002  -0.00008  -0.00002  -0.00011   2.18407
   A31        2.01975   0.00004   0.00044   0.00001   0.00045   2.02020
   A32        2.07925  -0.00003  -0.00035   0.00001  -0.00034   2.07891
   A33        2.03593  -0.00000  -0.00005   0.00006   0.00002   2.03595
   A34        2.11439  -0.00005  -0.00030  -0.00021  -0.00051   2.11388
   A35        2.13286   0.00005   0.00034   0.00015   0.00049   2.13336
   A36        2.08878  -0.00003   0.00007  -0.00016  -0.00008   2.08869
   A37        2.10012   0.00005   0.00026   0.00020   0.00046   2.10058
   A38        2.09429  -0.00003  -0.00033  -0.00004  -0.00037   2.09391
   A39        2.08902   0.00001  -0.00007   0.00008   0.00001   2.08903
   A40        2.05723   0.00001   0.00008   0.00005   0.00013   2.05735
   A41        2.13694  -0.00002  -0.00001  -0.00013  -0.00014   2.13680
    D1        3.14155  -0.00000   0.00009  -0.00008   0.00001   3.14156
    D2       -0.00007   0.00000   0.00008  -0.00005   0.00004  -0.00003
    D3       -0.00011   0.00000   0.00006   0.00007   0.00014   0.00003
    D4        3.14146   0.00000   0.00006   0.00010   0.00016  -3.14156
    D5        3.14158   0.00000  -0.00004   0.00009   0.00006  -3.14155
    D6        0.00005  -0.00000  -0.00001  -0.00006  -0.00007  -0.00001
    D7        3.14159  -0.00000   0.00003  -0.00006  -0.00003   3.14156
    D8       -0.00000  -0.00000   0.00004  -0.00008  -0.00004  -0.00004
    D9       -0.00007   0.00000   0.00001   0.00009   0.00010   0.00002
   D10        3.14152   0.00000   0.00001   0.00008   0.00009  -3.14158
   D11       -3.14158  -0.00000   0.00000  -0.00004  -0.00003   3.14157
   D12        0.00004  -0.00000   0.00001  -0.00007  -0.00006  -0.00002
   D13       -3.14159  -0.00000   0.00003  -0.00004  -0.00001   3.14159
   D14       -0.00000  -0.00000   0.00002  -0.00002  -0.00000  -0.00000
   D15       -0.00000  -0.00000  -0.00001   0.00001  -0.00001  -0.00001
   D16        3.14159   0.00000  -0.00002   0.00002   0.00000   3.14159
   D17       -3.14159  -0.00000  -0.00000  -0.00001  -0.00001   3.14159
   D18       -0.00000   0.00000  -0.00001   0.00001  -0.00000  -0.00000
   D19        3.14159   0.00000  -0.00002   0.00002  -0.00000   3.14159
   D20       -0.00000   0.00000  -0.00002   0.00002   0.00000  -0.00000
   D21        0.00000  -0.00000  -0.00001   0.00001  -0.00001  -0.00001
   D22       -3.14159  -0.00000  -0.00001   0.00000  -0.00000   3.14159
   D23        3.14159  -0.00000   0.00002  -0.00002   0.00000  -3.14159
   D24       -0.00000   0.00000   0.00002  -0.00001   0.00001   0.00000
   D25       -0.00000   0.00000   0.00001  -0.00000   0.00001   0.00001
   D26        3.14158   0.00000   0.00001   0.00000   0.00001  -3.14159
   D27        0.00000  -0.00000   0.00001  -0.00001  -0.00000   0.00000
   D28       -3.14159  -0.00000   0.00000  -0.00000   0.00000  -3.14159
   D29       -3.14159  -0.00000   0.00000  -0.00001  -0.00000   3.14159
   D30        0.00000  -0.00000  -0.00000  -0.00000  -0.00000   0.00000
   D31       -0.00000   0.00000   0.00000   0.00000   0.00001   0.00000
   D32        3.14158   0.00000   0.00001   0.00001   0.00002  -3.14159
   D33        3.14159   0.00000   0.00001  -0.00000   0.00001  -3.14159
   D34       -0.00002   0.00000   0.00001   0.00001   0.00002   0.00000
   D35        0.00000  -0.00000  -0.00000  -0.00000  -0.00001  -0.00000
   D36       -3.14159  -0.00000  -0.00000  -0.00000  -0.00001   3.14159
   D37       -3.14158  -0.00000  -0.00001  -0.00001  -0.00002   3.14159
   D38        0.00002  -0.00000  -0.00001  -0.00001  -0.00002  -0.00000
   D39        0.00000  -0.00000  -0.00000  -0.00000  -0.00000  -0.00000
   D40       -3.14159  -0.00000  -0.00000  -0.00001  -0.00001   3.14159
   D41       -3.14159  -0.00000  -0.00000   0.00000  -0.00000   3.14159
   D42        0.00001  -0.00000  -0.00000  -0.00000  -0.00001  -0.00000
   D43        0.00001  -0.00000   0.00001  -0.00002  -0.00001  -0.00001
   D44        3.14159   0.00000  -0.00001   0.00004   0.00003  -3.14157
   D45       -0.00005   0.00000   0.00000   0.00006   0.00006   0.00002
   D46        3.14156   0.00000  -0.00000   0.00004   0.00004  -3.14159
   D47        3.14156   0.00000   0.00002   0.00000   0.00002   3.14158
   D48       -0.00002  -0.00000   0.00001  -0.00001  -0.00000  -0.00002
   D49        0.00002  -0.00000  -0.00001  -0.00002  -0.00003  -0.00001
   D50       -3.14155  -0.00000  -0.00001  -0.00004  -0.00005   3.14158
   D51       -3.14158  -0.00000  -0.00000  -0.00000  -0.00001  -3.14159
   D52        0.00004  -0.00000  -0.00001  -0.00002  -0.00003   0.00000
   D53        0.00004  -0.00000   0.00000  -0.00005  -0.00005  -0.00001
   D54       -3.14156  -0.00000  -0.00000  -0.00004  -0.00004   3.14159
   D55       -3.14158  -0.00000   0.00001  -0.00003  -0.00002   3.14158
   D56        0.00001  -0.00000   0.00001  -0.00001  -0.00001  -0.00000
         Item               Value     Threshold  Converged?
 Maximum Force            0.000313     0.000450     YES
 RMS     Force            0.000050     0.000300     YES
 Maximum Displacement     0.001977     0.001800     NO 
 RMS     Displacement     0.000494     0.001200     YES
 Predicted change in Energy=-5.081783D-07
 GradGradGradGradGradGradGradGradGradGradGradGradGradGradGradGradGradGrad

                          Input orientation:                          
 ---------------------------------------------------------------------
 Center     Atomic      Atomic             Coordinates (Angstroms)
 Number     Number       Type             X           Y           Z
 ---------------------------------------------------------------------
      1          6           0        2.412173   -0.432834    0.000122
      2          6           0        1.174681   -1.146056    0.000278
      3          7           0        0.007855   -0.523139    0.000223
      4          6           0       -1.145286   -1.150546    0.000342
      5          6           0       -2.403286   -0.449852    0.000286
      6          6           0       -2.479924    0.966899    0.000107
      7          6           0       -3.701893    1.622484    0.000053
      8          6           0       -4.908814    0.909864    0.000174
      9          6           0       -4.853795   -0.486543    0.000357
     10          6           0       -3.633142   -1.152149    0.000412
     11          7           0        3.566338   -1.151317    0.000228
     12          6           0        4.721015   -0.500923    0.000136
     13          6           0        4.860674    0.886791   -0.000071
     14          6           0        3.673382    1.640217   -0.000169
     15          6           0        2.456144    0.994949   -0.000066
     16          1           0        1.243999   -2.245949    0.000447
     17          1           0       -1.183669   -2.255469    0.000492
     18          1           0       -1.540586    1.521420    0.000012
     19          1           0       -3.720551    2.715978   -0.000089
     20          1           0       -5.867288    1.432012    0.000129
     21          1           0       -5.780648   -1.066971    0.000457
     22          1           0       -3.610085   -2.245532    0.000556
     23          1           0        5.622926   -1.129161    0.000208
     24          1           0        5.845947    1.353992   -0.000142
     25          1           0        3.712396    2.733461   -0.000323
     26          1           0        1.509088    1.533863   -0.000130
 ---------------------------------------------------------------------
                    Distance matrix (angstroms):
                    1          2          3          4          5
     1  C    0.000000
     2  C    1.428311   0.000000
     3  N    2.406014   1.322690   0.000000
     4  C    3.629136   2.319971   1.312773   0.000000
     5  C    4.815490   3.645072   2.412255   1.439978   0.000000
     6  C    5.088406   4.221459   2.899872   2.502965   1.418822
     7  C    6.450282   5.607655   4.285549   3.771728   2.445599
     8  C    7.443098   6.421505   5.121244   4.290622   2.850702
     9  C    7.266167   6.064444   4.861788   3.767485   2.450784
    10  C    6.087959   4.807827   3.694930   2.487857   1.416251
    11  N    1.359527   2.391662   3.613503   4.711624   6.010696
    12  C    2.309846   3.604536   4.713213   5.902160   7.124484
    13  C    2.781468   4.209395   5.053489   6.342105   7.385914
    14  C    2.426559   3.742569   4.256313   5.568475   6.426063
    15  C    1.428460   2.495205   2.880748   4.192069   5.069666
    16  H    2.156853   1.102075   2.120407   2.628420   4.065545
    17  H    4.031386   2.606264   2.102545   1.105589   2.178926
    18  H    4.409469   3.806324   2.564740   2.701048   2.151781
    19  H    6.893862   6.235271   4.938916   4.645643   3.428945
    20  H    8.486880   7.499051   6.191924   5.382092   3.942172
    21  H    8.217326   6.955779   5.813993   4.636116   3.433280
    22  H    6.289155   4.909464   4.007010   2.697079   2.163523
    23  H    3.285393   4.448277   5.647680   6.768246   8.054908
    24  H    3.870859   5.298204   6.132450   7.426308   8.444152
    25  H    3.422865   4.635801   4.932451   6.219532   6.894567
    26  H    2.164130   2.700702   2.546558   3.775149   4.386547
                    6          7          8          9         10
     6  C    0.000000
     7  C    1.386723   0.000000
     8  C    2.429560   1.401601   0.000000
     9  C    2.783479   2.403096   1.397491   0.000000
    10  C    2.412524   2.775484   2.424714   1.390333   0.000000
    11  N    6.406569   7.779534   8.722194   8.446334   7.199480
    12  C    7.349016   8.686440   9.732622   9.574821   8.379501
    13  C    7.341035   8.594114   9.769515   9.811063   8.735112
    14  C    6.190035   7.375296   8.613217   8.788394   7.821931
    15  C    4.936148   6.189929   7.365450   7.458554   6.456735
    16  H    4.918333   6.279062   6.914931   6.346543   4.998290
    17  H    3.473317   4.623848   4.888358   4.074178   2.686491
    18  H    1.090802   2.163668   3.423297   3.874180   3.395108
    19  H    2.144396   1.093654   2.161947   3.397114   3.869115
    20  H    3.419147   2.173756   1.091472   2.169798   3.416036
    21  H    3.877035   3.399174   2.160549   1.093596   2.149195
    22  H    3.405434   3.869106   3.412217   2.154265   1.093627
    23  H    8.369567   9.722336  10.727310  10.496411   9.256097
    24  H    8.334865   9.551615  10.763928  10.856890   9.804788
    25  H    6.439377   7.497063   8.811968   9.151397   8.309927
    26  H    4.029103   5.211735   6.448166   6.675951   5.801481
                   11         12         13         14         15
    11  N    0.000000
    12  C    1.325252   0.000000
    13  C    2.414372   1.394724   0.000000
    14  C    2.793586   2.383698   1.406169   0.000000
    15  C    2.416400   2.714272   2.406961   1.377694   0.000000
    16  H    2.567387   3.890341   4.784808   4.583032   3.460161
    17  H    4.876649   6.159847   6.812332   6.226340   4.879903
    18  H    5.764043   6.580085   6.432642   5.215322   4.031256
    19  H    8.249529   9.033742   8.774015   7.471781   6.411982
    20  H    9.780945  10.763290  10.741807   9.542942   8.334899
    21  H    9.347366  10.516907  10.819192   9.834000   8.490951
    22  H    7.259363   8.511809   9.031346   8.255177   6.877489
    23  H    2.056708   1.099148   2.155248   3.386765   3.813181
    24  H    3.387210   2.169374   1.090431   2.191339   3.408765
    25  H    3.887523   3.388002   2.174565   1.093940   2.144900
    26  H    3.382671   3.802213   3.413477   2.166905   1.089653
                   16         17         18         19         20
    16  H    0.000000
    17  H    2.427686   0.000000
    18  H    4.684760   3.793715   0.000000
    19  H    7.019080   5.581313   2.485803   0.000000
    20  H    8.006110   5.961024   4.327625   2.501409   0.000000
    21  H    7.122897   4.748131   4.967684   4.307517   2.500485
    22  H    4.854084   2.426437   4.297994   4.962740   4.315009
    23  H    4.519095   6.899152   7.638160  10.103746  11.772198
    24  H    5.842730   7.902133   7.388431   9.662966  11.713495
    25  H    5.557653   6.990055   5.390999   7.432968   9.667684
    26  H    3.789095   4.648652   3.049700   5.361579   7.377079
                   21         22         23         24         25
    21  H    0.000000
    22  H    2.469889   0.000000
    23  H   11.403744   9.300257   0.000000
    24  H   11.875975  10.117961   2.493148   0.000000
    25  H   10.225516   8.854892   4.309290   2.540665   0.000000
    26  H    7.739805   6.363157   4.900547   4.340588   2.508705
                   26
    26  H    0.000000
 Stoichiometry    C13H11N2(1-)
 Framework group  C1[X(C13H11N2)]
 Deg. of freedom    72
 Full point group                 C1      NOp   1
 Largest Abelian subgroup         C1      NOp   1
 Largest concise Abelian subgroup C1      NOp   1
                         Standard orientation:                         
 ---------------------------------------------------------------------
 Center     Atomic      Atomic             Coordinates (Angstroms)
 Number     Number       Type             X           Y           Z
 ---------------------------------------------------------------------
      1          6           0        2.427566   -0.447998   -0.000038
      2          6           0        1.188022   -1.157646    0.000117
      3          7           0        0.022997   -0.531366    0.000063
      4          6           0       -1.131949   -1.155443    0.000182
      5          6           0       -2.387922   -0.451122    0.000126
      6          6           0       -2.460473    0.965844   -0.000053
      7          6           0       -3.680545    1.624951   -0.000108
      8          6           0       -4.889517    0.915817    0.000014
      9          6           0       -4.838527   -0.480744    0.000196
     10          6           0       -3.619799   -1.149868    0.000252
     11          7           0        3.579653   -1.169808    0.000067
     12          6           0        4.736202   -0.522747   -0.000025
     13          6           0        4.879863    0.864558   -0.000232
     14          6           0        3.694750    1.621406   -0.000330
     15          6           0        2.475656    0.979653   -0.000227
     16          1           0        1.254166   -2.257734    0.000286
     17          1           0       -1.173519   -2.260250    0.000331
     18          1           0       -1.519539    1.517652   -0.000149
     19          1           0       -3.696048    2.718495   -0.000249
     20          1           0       -5.846481    1.440728   -0.000032
     21          1           0       -5.767051   -1.058495    0.000296
     22          1           0       -3.599897   -2.243314    0.000396
     23          1           0        5.636297   -1.153585    0.000048
     24          1           0        5.866481    1.328914   -0.000303
     25          1           0        3.736919    2.714533   -0.000484
     26          1           0        1.530159    1.521296   -0.000291
 ---------------------------------------------------------------------
 Rotational constants (GHZ):           2.2151660           0.2210131           0.2009625
 Standard basis: def2SVP (5D, 7F)
 There are   280 symmetry adapted cartesian basis functions of A   symmetry.
 There are   265 symmetry adapted basis functions of A   symmetry.
   265 basis functions,   452 primitive gaussians,   280 cartesian basis functions
    52 alpha electrons       52 beta electrons
       nuclear repulsion energy       818.0329884643 Hartrees.
 NAtoms=   26 NActive=   26 NUniq=   26 SFac= 1.00D+00 NAtFMM=   60 NAOKFM=F Big=F
 Integral buffers will be    131072 words long.
 Raffenetti 2 integral format.
 Two-electron integral symmetry is turned on.
 Nuclear repulsion after empirical dispersion term =      818.0320278139 Hartrees.
 One-electron integrals computed using PRISM.
   1 Symmetry operations used in ECPInt.
 ECPInt:  NShTT=    7626 NPrTT=   27958 LenC2=    6783 LenP2D=   17821.
 LDataN:  DoStor=T MaxTD1= 4 Len=   56
 NBasis=   265 RedAO= T EigKep=  3.03D-04  NBF=   265
 NBsUse=   265 1.00D-06 EigRej= -1.00D+00 NBFU=   265
 Initial guess from the checkpoint file:  "vsa2_crest_conformers-1.chk"
 B after Tr=     0.000000   -0.000000   -0.000000
         Rot=    1.000000   -0.000002   -0.000000    0.000001 Ang=  -0.00 deg.
 Requested convergence on RMS density matrix=1.00D-08 within 128 cycles.
 Requested convergence on MAX density matrix=1.00D-06.
 Requested convergence on             energy=1.00D-06.
 No special actions if energy rises.
 SCF Done:  E(RM062X) =  -610.819097684     A.U. after    8 cycles
            NFock=  8  Conv=0.96D-08     -V/T= 2.0106
   1 Symmetry operations used in ECPInt.
 ECPInt:  NShTT=    7626 NPrTT=   27958 LenC2=    6783 LenP2D=   17821.
 LDataN:  DoStor=T MaxTD1= 5 Len=  102
 Calling FoFJK, ICntrl=      2127 FMM=F ISym2X=0 I1Cent= 0 IOpClX= 0 NMat=1 NMatS=1 NMatT=0.
 ***** Axes restored to original set *****
 -------------------------------------------------------------------
 Center     Atomic                   Forces (Hartrees/Bohr)
 Number     Number              X              Y              Z
 -------------------------------------------------------------------
      1        6          -0.000013453    0.000053213    0.000008041
      2        6          -0.000091149    0.000056172   -0.000002041
      3        7           0.000106884   -0.000038222   -0.000001115
      4        6          -0.000112989    0.000039666    0.000000648
      5        6           0.000084850   -0.000048317    0.000000349
      6        6          -0.000008416    0.000009202   -0.000000232
      7        6           0.000015173    0.000018389   -0.000000218
      8        6          -0.000011598   -0.000006421    0.000000160
      9        6          -0.000012195    0.000005463   -0.000000078
     10        6          -0.000007054   -0.000009890   -0.000000029
     11        7           0.000026527   -0.000025720   -0.000001285
     12        6           0.000012058   -0.000029659   -0.000003171
     13        6          -0.000050543    0.000037974    0.000000863
     14        6           0.000054904    0.000022887    0.000000073
     15        6          -0.000010653   -0.000072196   -0.000002685
     16        1           0.000008632   -0.000019778   -0.000000493
     17        1           0.000015255   -0.000014831    0.000000046
     18        1           0.000011077    0.000012103    0.000000010
     19        1          -0.000001024    0.000007239    0.000000038
     20        1          -0.000009325    0.000010766    0.000000049
     21        1          -0.000005152   -0.000003305    0.000000018
     22        1          -0.000002843   -0.000006100   -0.000000075
     23        1          -0.000004511   -0.000009852    0.000001044
     24        1           0.000019263   -0.000000458   -0.000000074
     25        1           0.000000961   -0.000002537    0.000000169
     26        1          -0.000014680    0.000014212   -0.000000011
 -------------------------------------------------------------------
 Cartesian Forces:  Max     0.000112989 RMS     0.000030009

 GradGradGradGradGradGradGradGradGradGradGradGradGradGradGradGradGradGrad
 Berny optimization.
 Using GEDIIS/GDIIS optimizer.
 FormGI is forming the generalized inverse of G from B-inverse, IUseBI=4.
 Internal  Forces:  Max     0.000076087 RMS     0.000013870
 Search for a local minimum.
 Step number   5 out of a maximum of  134
 All quantities printed in internal units (Hartrees-Bohrs-Radians)
 Mixed Optimization -- En-DIIS/RFO-DIIS
 Swapping is turned off.
 Update second derivatives using D2CorX and points    1    2    3    4    5
 DE= -5.87D-07 DEPred=-5.08D-07 R= 1.16D+00
 Trust test= 1.16D+00 RLast= 2.27D-03 DXMaxT set to 3.86D-01
 ITU=  0  1  1  1  0
     Eigenvalues ---    0.01815   0.01940   0.01953   0.02021   0.02038
     Eigenvalues ---    0.02041   0.02165   0.02170   0.02204   0.02204
     Eigenvalues ---    0.02206   0.02232   0.02276   0.02287   0.02288
     Eigenvalues ---    0.02291   0.02324   0.02335   0.02342   0.02441
     Eigenvalues ---    0.02515   0.02770   0.02933   0.12242   0.16000
     Eigenvalues ---    0.16000   0.16000   0.16000   0.16000   0.16000
     Eigenvalues ---    0.16002   0.16003   0.16036   0.16165   0.21724
     Eigenvalues ---    0.21993   0.22002   0.22044   0.22375   0.22602
     Eigenvalues ---    0.23315   0.24523   0.24977   0.25029   0.26406
     Eigenvalues ---    0.32865   0.33492   0.35053   0.35513   0.35563
     Eigenvalues ---    0.35625   0.35636   0.35878   0.35983   0.36048
     Eigenvalues ---    0.36482   0.37199   0.41141   0.41808   0.42500
     Eigenvalues ---    0.43700   0.45974   0.46083   0.47032   0.47633
     Eigenvalues ---    0.48156   0.49216   0.51481   0.54093   0.59136
     Eigenvalues ---    0.61472   0.71680
 En-DIIS/RFO-DIIS/Sim-DIIS IScMMF=       -3 using points:     5    4    3
 RFO step:  Lambda=-6.29743634D-08.
 DidBck=F Rises=F RFO-DIIS coefs:    1.17775   -0.18460    0.00685
 Iteration  1 RMS(Cart)=  0.00009524 RMS(Int)=  0.00000000
 Iteration  2 RMS(Cart)=  0.00000001 RMS(Int)=  0.00000000
 Variable       Old X    -DE/DX   Delta X   Delta X   Delta X     New X
                                 (Linear)    (Quad)   (Total)
    R1        2.69912   0.00002   0.00012  -0.00001   0.00011   2.69922
    R2        2.56913   0.00003  -0.00003   0.00008   0.00005   2.56918
    R3        2.69940  -0.00003  -0.00004  -0.00007  -0.00010   2.69929
    R4        2.49952  -0.00008  -0.00012  -0.00007  -0.00018   2.49934
    R5        2.08262   0.00002   0.00002   0.00005   0.00007   2.08269
    R6        2.48078   0.00004   0.00004   0.00006   0.00010   2.48088
    R7        2.72116  -0.00006  -0.00000  -0.00016  -0.00017   2.72100
    R8        2.08926   0.00001  -0.00001   0.00005   0.00003   2.08929
    R9        2.68118   0.00003   0.00005   0.00003   0.00008   2.68127
   R10        2.67633   0.00003   0.00002   0.00004   0.00006   2.67639
   R11        2.62053   0.00001   0.00001  -0.00001   0.00001   2.62054
   R12        2.06132   0.00001  -0.00001   0.00004   0.00004   2.06135
   R13        2.64864   0.00002   0.00003   0.00003   0.00005   2.64870
   R14        2.06671   0.00001   0.00000   0.00001   0.00001   2.06672
   R15        2.64088   0.00001   0.00001   0.00001   0.00001   2.64089
   R16        2.06258   0.00001  -0.00000   0.00003   0.00003   2.06261
   R17        2.62735   0.00002   0.00004   0.00000   0.00004   2.62739
   R18        2.06660   0.00001   0.00000   0.00002   0.00002   2.06661
   R19        2.06665   0.00001   0.00000   0.00002   0.00002   2.06667
   R20        2.50436  -0.00000  -0.00004   0.00001  -0.00003   2.50433
   R21        2.63565   0.00004   0.00006   0.00004   0.00010   2.63574
   R22        2.07709   0.00000   0.00000  -0.00000  -0.00000   2.07709
   R23        2.65727  -0.00002  -0.00004  -0.00004  -0.00009   2.65719
   R24        2.06062   0.00002  -0.00000   0.00005   0.00004   2.06066
   R25        2.60346   0.00004   0.00007   0.00004   0.00011   2.60357
   R26        2.06725  -0.00000  -0.00000  -0.00001  -0.00001   2.06724
   R27        2.05915   0.00002  -0.00001   0.00005   0.00005   2.05919
    A1        2.06194  -0.00001  -0.00001  -0.00004  -0.00005   2.06189
    A2        2.12443   0.00001   0.00001   0.00003   0.00004   2.12447
    A3        2.09682   0.00000   0.00000   0.00001   0.00001   2.09683
    A4        2.12838   0.00001  -0.00001   0.00009   0.00007   2.12846
    A5        2.03070  -0.00002  -0.00012  -0.00005  -0.00017   2.03053
    A6        2.12410   0.00000   0.00013  -0.00003   0.00010   2.12420
    A7        2.15294   0.00001   0.00006   0.00003   0.00009   2.15303
    A8        2.13511   0.00001  -0.00001   0.00005   0.00004   2.13515
    A9        2.10381  -0.00002  -0.00001  -0.00012  -0.00013   2.10368
   A10        2.04427   0.00001   0.00002   0.00008   0.00009   2.04436
   A11        2.13303   0.00000   0.00004  -0.00001   0.00003   2.13306
   A12        2.11455   0.00000   0.00002   0.00002   0.00003   2.11458
   A13        2.03561  -0.00001  -0.00005  -0.00001  -0.00006   2.03555
   A14        2.11726   0.00000   0.00002   0.00001   0.00003   2.11729
   A15        2.05003   0.00000   0.00000   0.00002   0.00003   2.05006
   A16        2.11589  -0.00001  -0.00002  -0.00003  -0.00005   2.11584
   A17        2.11581   0.00000   0.00002  -0.00001   0.00001   2.11582
   A18        2.08028   0.00000  -0.00003   0.00003  -0.00001   2.08027
   A19        2.08710  -0.00000   0.00001  -0.00001  -0.00000   2.08709
   A20        2.06478   0.00000  -0.00004   0.00002  -0.00002   2.06476
   A21        2.10941  -0.00000   0.00000  -0.00002  -0.00001   2.10940
   A22        2.10900   0.00000   0.00004   0.00000   0.00004   2.10903
   A23        2.10939   0.00000   0.00002  -0.00000   0.00002   2.10941
   A24        2.09090   0.00000   0.00003   0.00000   0.00003   2.09094
   A25        2.08289  -0.00000  -0.00005   0.00000  -0.00005   2.08284
   A26        2.12352   0.00000   0.00003  -0.00000   0.00002   2.12355
   A27        2.06857   0.00000   0.00003  -0.00000   0.00003   2.06860
   A28        2.09110  -0.00000  -0.00006   0.00001  -0.00005   2.09104
   A29        2.07181  -0.00000   0.00002  -0.00002  -0.00000   2.07181
   A30        2.18407  -0.00001  -0.00002  -0.00001  -0.00003   2.18404
   A31        2.02020  -0.00001   0.00007  -0.00007  -0.00000   2.02020
   A32        2.07891   0.00001  -0.00005   0.00008   0.00003   2.07894
   A33        2.03595   0.00001   0.00000   0.00004   0.00004   2.03599
   A34        2.11388  -0.00001  -0.00008  -0.00003  -0.00011   2.11377
   A35        2.13336   0.00000   0.00008  -0.00001   0.00007   2.13342
   A36        2.08869  -0.00001  -0.00002  -0.00003  -0.00005   2.08865
   A37        2.10058   0.00000   0.00007  -0.00001   0.00007   2.10065
   A38        2.09391   0.00000  -0.00006   0.00004  -0.00002   2.09389
   A39        2.08903   0.00001   0.00000   0.00003   0.00003   2.08906
   A40        2.05735   0.00000   0.00002   0.00001   0.00003   2.05739
   A41        2.13680  -0.00001  -0.00002  -0.00004  -0.00007   2.13674
    D1        3.14156   0.00000   0.00000   0.00008   0.00008  -3.14154
    D2       -0.00003   0.00000   0.00000   0.00007   0.00007   0.00004
    D3        0.00003  -0.00000   0.00002  -0.00007  -0.00004  -0.00002
    D4       -3.14156  -0.00000   0.00003  -0.00008  -0.00005   3.14157
    D5       -3.14155  -0.00000   0.00001  -0.00010  -0.00009   3.14155
    D6       -0.00001   0.00000  -0.00001   0.00005   0.00003   0.00002
    D7        3.14156   0.00000  -0.00001   0.00008   0.00007  -3.14156
    D8       -0.00004   0.00000  -0.00001   0.00009   0.00008   0.00004
    D9        0.00002  -0.00000   0.00002  -0.00007  -0.00005  -0.00003
   D10       -3.14158  -0.00000   0.00002  -0.00006  -0.00004   3.14157
   D11        3.14157   0.00000  -0.00001   0.00004   0.00003  -3.14158
   D12       -0.00002   0.00000  -0.00001   0.00005   0.00004   0.00002
   D13        3.14159   0.00000  -0.00000   0.00001   0.00001  -3.14159
   D14       -0.00000   0.00000  -0.00000   0.00001   0.00001   0.00000
   D15       -0.00001   0.00000  -0.00000   0.00001   0.00001  -0.00000
   D16        3.14159   0.00000   0.00000   0.00000   0.00000   3.14159
   D17        3.14159   0.00000  -0.00000   0.00001   0.00001   3.14159
   D18       -0.00000   0.00000  -0.00000   0.00000   0.00000  -0.00000
   D19        3.14159   0.00000   0.00000  -0.00000  -0.00000   3.14159
   D20       -0.00000  -0.00000   0.00000  -0.00000  -0.00000  -0.00000
   D21       -0.00001   0.00000  -0.00000   0.00000   0.00000  -0.00000
   D22        3.14159   0.00000  -0.00000   0.00000   0.00000   3.14159
   D23       -3.14159  -0.00000   0.00000   0.00000   0.00000  -3.14159
   D24        0.00000  -0.00000   0.00000   0.00000   0.00000   0.00000
   D25        0.00001  -0.00000   0.00000  -0.00001  -0.00000   0.00000
   D26       -3.14159  -0.00000   0.00000  -0.00001  -0.00000  -3.14159
   D27        0.00000   0.00000  -0.00000   0.00000   0.00000   0.00000
   D28       -3.14159  -0.00000   0.00000  -0.00000  -0.00000   3.14159
   D29        3.14159   0.00000  -0.00000   0.00000   0.00000  -3.14159
   D30        0.00000  -0.00000  -0.00000  -0.00000  -0.00000  -0.00000
   D31        0.00000  -0.00000   0.00000  -0.00001  -0.00000  -0.00000
   D32       -3.14159  -0.00000   0.00000  -0.00000  -0.00000  -3.14159
   D33       -3.14159  -0.00000   0.00000  -0.00000  -0.00000  -3.14159
   D34        0.00000   0.00000   0.00000  -0.00000   0.00000   0.00000
   D35       -0.00000   0.00000  -0.00000   0.00000   0.00000   0.00000
   D36        3.14159   0.00000  -0.00000   0.00000   0.00000   3.14159
   D37        3.14159   0.00000  -0.00000   0.00000   0.00000   3.14159
   D38       -0.00000   0.00000  -0.00000   0.00000  -0.00000  -0.00000
   D39       -0.00000   0.00000  -0.00000   0.00000   0.00000  -0.00000
   D40        3.14159   0.00000  -0.00000   0.00000  -0.00000   3.14159
   D41        3.14159   0.00000  -0.00000   0.00000   0.00000  -3.14159
   D42       -0.00000   0.00000  -0.00000   0.00000   0.00000   0.00000
   D43       -0.00001   0.00000  -0.00000   0.00001   0.00001   0.00001
   D44       -3.14157  -0.00000   0.00000  -0.00005  -0.00004   3.14157
   D45        0.00002  -0.00000   0.00001  -0.00005  -0.00003  -0.00002
   D46       -3.14159  -0.00000   0.00001  -0.00003  -0.00002   3.14158
   D47        3.14158   0.00000   0.00000   0.00002   0.00002  -3.14158
   D48       -0.00002   0.00000  -0.00000   0.00003   0.00003   0.00001
   D49       -0.00001   0.00000  -0.00000   0.00002   0.00001   0.00001
   D50        3.14158   0.00000  -0.00001   0.00003   0.00002  -3.14158
   D51       -3.14159  -0.00000  -0.00000  -0.00000  -0.00000  -3.14159
   D52        0.00000   0.00000  -0.00001   0.00001   0.00000   0.00001
   D53       -0.00001   0.00000  -0.00001   0.00004   0.00003   0.00002
   D54        3.14159   0.00000  -0.00001   0.00002   0.00002  -3.14158
   D55        3.14158   0.00000  -0.00000   0.00003   0.00003  -3.14158
   D56       -0.00000   0.00000  -0.00000   0.00001   0.00001   0.00001
         Item               Value     Threshold  Converged?
 Maximum Force            0.000076     0.000450     YES
 RMS     Force            0.000014     0.000300     YES
 Maximum Displacement     0.000278     0.001800     YES
 RMS     Displacement     0.000095     0.001200     YES
 Predicted change in Energy=-3.569282D-08
 Optimization completed.
    -- Stationary point found.
                           ----------------------------
                           !   Optimized Parameters   !
                           ! (Angstroms and Degrees)  !
 --------------------------                            --------------------------
 ! Name  Definition              Value          Derivative Info.                !
 --------------------------------------------------------------------------------
 ! R1    R(1,2)                  1.4283         -DE/DX =    0.0                 !
 ! R2    R(1,11)                 1.3595         -DE/DX =    0.0                 !
 ! R3    R(1,15)                 1.4285         -DE/DX =    0.0                 !
 ! R4    R(2,3)                  1.3227         -DE/DX =   -0.0001              !
 ! R5    R(2,16)                 1.1021         -DE/DX =    0.0                 !
 ! R6    R(3,4)                  1.3128         -DE/DX =    0.0                 !
 ! R7    R(4,5)                  1.44           -DE/DX =   -0.0001              !
 ! R8    R(4,17)                 1.1056         -DE/DX =    0.0                 !
 ! R9    R(5,6)                  1.4188         -DE/DX =    0.0                 !
 ! R10   R(5,10)                 1.4163         -DE/DX =    0.0                 !
 ! R11   R(6,7)                  1.3867         -DE/DX =    0.0                 !
 ! R12   R(6,18)                 1.0908         -DE/DX =    0.0                 !
 ! R13   R(7,8)                  1.4016         -DE/DX =    0.0                 !
 ! R14   R(7,19)                 1.0937         -DE/DX =    0.0                 !
 ! R15   R(8,9)                  1.3975         -DE/DX =    0.0                 !
 ! R16   R(8,20)                 1.0915         -DE/DX =    0.0                 !
 ! R17   R(9,10)                 1.3903         -DE/DX =    0.0                 !
 ! R18   R(9,21)                 1.0936         -DE/DX =    0.0                 !
 ! R19   R(10,22)                1.0936         -DE/DX =    0.0                 !
 ! R20   R(11,12)                1.3253         -DE/DX =    0.0                 !
 ! R21   R(12,13)                1.3947         -DE/DX =    0.0                 !
 ! R22   R(12,23)                1.0991         -DE/DX =    0.0                 !
 ! R23   R(13,14)                1.4062         -DE/DX =    0.0                 !
 ! R24   R(13,24)                1.0904         -DE/DX =    0.0                 !
 ! R25   R(14,15)                1.3777         -DE/DX =    0.0                 !
 ! R26   R(14,25)                1.0939         -DE/DX =    0.0                 !
 ! R27   R(15,26)                1.0897         -DE/DX =    0.0                 !
 ! A1    A(2,1,11)             118.1404         -DE/DX =    0.0                 !
 ! A2    A(2,1,15)             121.7207         -DE/DX =    0.0                 !
 ! A3    A(11,1,15)            120.1389         -DE/DX =    0.0                 !
 ! A4    A(1,2,3)              121.9475         -DE/DX =    0.0                 !
 ! A5    A(1,2,16)             116.3506         -DE/DX =    0.0                 !
 ! A6    A(3,2,16)             121.7019         -DE/DX =    0.0                 !
 ! A7    A(2,3,4)              123.3543         -DE/DX =    0.0                 !
 ! A8    A(3,4,5)              122.3327         -DE/DX =    0.0                 !
 ! A9    A(3,4,17)             120.5395         -DE/DX =    0.0                 !
 ! A10   A(5,4,17)             117.1278         -DE/DX =    0.0                 !
 ! A11   A(4,5,6)              122.2137         -DE/DX =    0.0                 !
 ! A12   A(4,5,10)             121.1545         -DE/DX =    0.0                 !
 ! A13   A(6,5,10)             116.6318         -DE/DX =    0.0                 !
 ! A14   A(5,6,7)              121.3099         -DE/DX =    0.0                 !
 ! A15   A(5,6,18)             117.4583         -DE/DX =    0.0                 !
 ! A16   A(7,6,18)             121.2318         -DE/DX =    0.0                 !
 ! A17   A(6,7,8)              121.227          -DE/DX =    0.0                 !
 ! A18   A(6,7,19)             119.191          -DE/DX =    0.0                 !
 ! A19   A(8,7,19)             119.5819         -DE/DX =    0.0                 !
 ! A20   A(7,8,9)              118.3032         -DE/DX =    0.0                 !
 ! A21   A(7,8,20)             120.8603         -DE/DX =    0.0                 !
 ! A22   A(9,8,20)             120.8366         -DE/DX =    0.0                 !
 ! A23   A(8,9,10)             120.8594         -DE/DX =    0.0                 !
 ! A24   A(8,9,21)             119.7999         -DE/DX =    0.0                 !
 ! A25   A(10,9,21)            119.3407         -DE/DX =    0.0                 !
 ! A26   A(5,10,9)             121.6689         -DE/DX =    0.0                 !
 ! A27   A(5,10,22)            118.5201         -DE/DX =    0.0                 !
 ! A28   A(9,10,22)            119.8111         -DE/DX =    0.0                 !
 ! A29   A(1,11,12)            118.706          -DE/DX =    0.0                 !
 ! A30   A(11,12,13)           125.1381         -DE/DX =    0.0                 !
 ! A31   A(11,12,23)           115.7491         -DE/DX =    0.0                 !
 ! A32   A(13,12,23)           119.1128         -DE/DX =    0.0                 !
 ! A33   A(12,13,14)           116.6514         -DE/DX =    0.0                 !
 ! A34   A(12,13,24)           121.1164         -DE/DX =    0.0                 !
 ! A35   A(14,13,24)           122.2323         -DE/DX =    0.0                 !
 ! A36   A(13,14,15)           119.6733         -DE/DX =    0.0                 !
 ! A37   A(13,14,25)           120.3544         -DE/DX =    0.0                 !
 ! A38   A(15,14,25)           119.9723         -DE/DX =    0.0                 !
 ! A39   A(1,15,14)            119.6924         -DE/DX =    0.0                 !
 ! A40   A(1,15,26)            117.8777         -DE/DX =    0.0                 !
 ! A41   A(14,15,26)           122.4299         -DE/DX =    0.0                 !
 ! D1    D(11,1,2,3)          -180.0017         -DE/DX =    0.0                 !
 ! D2    D(11,1,2,16)           -0.0016         -DE/DX =    0.0                 !
 ! D3    D(15,1,2,3)             0.0016         -DE/DX =    0.0                 !
 ! D4    D(15,1,2,16)          180.0017         -DE/DX =    0.0                 !
 ! D5    D(2,1,11,12)          180.0024         -DE/DX =    0.0                 !
 ! D6    D(15,1,11,12)          -0.0008         -DE/DX =    0.0                 !
 ! D7    D(2,1,15,14)         -180.002          -DE/DX =    0.0                 !
 ! D8    D(2,1,15,26)           -0.0025         -DE/DX =    0.0                 !
 ! D9    D(11,1,15,14)           0.0014         -DE/DX =    0.0                 !
 ! D10   D(11,1,15,26)         180.0009         -DE/DX =    0.0                 !
 ! D11   D(1,2,3,4)           -180.001          -DE/DX =    0.0                 !
 ! D12   D(16,2,3,4)            -0.0011         -DE/DX =    0.0                 !
 ! D13   D(2,3,4,5)           -180.0003         -DE/DX =    0.0                 !
 ! D14   D(2,3,4,17)            -0.0003         -DE/DX =    0.0                 !
 ! D15   D(3,4,5,6)             -0.0004         -DE/DX =    0.0                 !
 ! D16   D(3,4,5,10)           179.9998         -DE/DX =    0.0                 !
 ! D17   D(17,4,5,6)           179.9996         -DE/DX =    0.0                 !
 ! D18   D(17,4,5,10)           -0.0003         -DE/DX =    0.0                 !
 ! D19   D(4,5,6,7)            179.9999         -DE/DX =    0.0                 !
 ! D20   D(4,5,6,18)             0.0            -DE/DX =    0.0                 !
 ! D21   D(10,5,6,7)            -0.0003         -DE/DX =    0.0                 !
 ! D22   D(10,5,6,18)          179.9998         -DE/DX =    0.0                 !
 ! D23   D(4,5,10,9)          -179.9998         -DE/DX =    0.0                 !
 ! D24   D(4,5,10,22)            0.0001         -DE/DX =    0.0                 !
 ! D25   D(6,5,10,9)             0.0003         -DE/DX =    0.0                 !
 ! D26   D(6,5,10,22)         -179.9997         -DE/DX =    0.0                 !
 ! D27   D(5,6,7,8)              0.0001         -DE/DX =    0.0                 !
 ! D28   D(5,6,7,19)           180.0002         -DE/DX =    0.0                 !
 ! D29   D(18,6,7,8)          -180.0001         -DE/DX =    0.0                 !
 ! D30   D(18,6,7,19)            0.0            -DE/DX =    0.0                 !
 ! D31   D(6,7,8,9)              0.0002         -DE/DX =    0.0                 !
 ! D32   D(6,7,8,20)          -179.9999         -DE/DX =    0.0                 !
 ! D33   D(19,7,8,9)          -179.9999         -DE/DX =    0.0                 !
 ! D34   D(19,7,8,20)            0.0            -DE/DX =    0.0                 !
 ! D35   D(7,8,9,10)            -0.0002         -DE/DX =    0.0                 !
 ! D36   D(7,8,9,21)           179.9998         -DE/DX =    0.0                 !
 ! D37   D(20,8,9,10)          179.9999         -DE/DX =    0.0                 !
 ! D38   D(20,8,9,21)           -0.0001         -DE/DX =    0.0                 !
 ! D39   D(8,9,10,5)            -0.0001         -DE/DX =    0.0                 !
 ! D40   D(8,9,10,22)          180.0            -DE/DX =    0.0                 !
 ! D41   D(21,9,10,5)         -180.0001         -DE/DX =    0.0                 !
 ! D42   D(21,9,10,22)          -0.0001         -DE/DX =    0.0                 !
 ! D43   D(1,11,12,13)          -0.0003         -DE/DX =    0.0                 !
 ! D44   D(1,11,12,23)         180.0011         -DE/DX =    0.0                 !
 ! D45   D(11,12,13,14)          0.0009         -DE/DX =    0.0                 !
 ! D46   D(11,12,13,24)        180.0003         -DE/DX =    0.0                 !
 ! D47   D(23,12,13,14)       -180.0006         -DE/DX =    0.0                 !
 ! D48   D(23,12,13,24)         -0.0012         -DE/DX =    0.0                 !
 ! D49   D(12,13,14,15)         -0.0003         -DE/DX =    0.0                 !
 ! D50   D(12,13,14,25)       -180.0005         -DE/DX =    0.0                 !
 ! D51   D(24,13,14,15)       -179.9997         -DE/DX =    0.0                 !
 ! D52   D(24,13,14,25)          0.0001         -DE/DX =    0.0                 !
 ! D53   D(13,14,15,1)          -0.0008         -DE/DX =    0.0                 !
 ! D54   D(13,14,15,26)       -180.0003         -DE/DX =    0.0                 !
 ! D55   D(25,14,15,1)        -180.0006         -DE/DX =    0.0                 !
 ! D56   D(25,14,15,26)         -0.0001         -DE/DX =    0.0                 !
 --------------------------------------------------------------------------------
 GradGradGradGradGradGradGradGradGradGradGradGradGradGradGradGradGradGrad

                          Input orientation:                          
 ---------------------------------------------------------------------
 Center     Atomic      Atomic             Coordinates (Angstroms)
 Number     Number       Type             X           Y           Z
 ---------------------------------------------------------------------
      1          6           0        2.412173   -0.432834    0.000122
      2          6           0        1.174681   -1.146056    0.000278
      3          7           0        0.007855   -0.523139    0.000223
      4          6           0       -1.145286   -1.150546    0.000342
      5          6           0       -2.403286   -0.449852    0.000286
      6          6           0       -2.479924    0.966899    0.000107
      7          6           0       -3.701893    1.622484    0.000053
      8          6           0       -4.908814    0.909864    0.000174
      9          6           0       -4.853795   -0.486543    0.000357
     10          6           0       -3.633142   -1.152149    0.000412
     11          7           0        3.566338   -1.151317    0.000228
     12          6           0        4.721015   -0.500923    0.000136
     13          6           0        4.860674    0.886791   -0.000071
     14          6           0        3.673382    1.640217   -0.000169
     15          6           0        2.456144    0.994949   -0.000066
     16          1           0        1.243999   -2.245949    0.000447
     17          1           0       -1.183669   -2.255469    0.000492
     18          1           0       -1.540586    1.521420    0.000012
     19          1           0       -3.720551    2.715978   -0.000089
     20          1           0       -5.867288    1.432012    0.000129
     21          1           0       -5.780648   -1.066971    0.000457
     22          1           0       -3.610085   -2.245532    0.000556
     23          1           0        5.622926   -1.129161    0.000208
     24          1           0        5.845947    1.353992   -0.000142
     25          1           0        3.712396    2.733461   -0.000323
     26          1           0        1.509088    1.533863   -0.000130
 ---------------------------------------------------------------------
                    Distance matrix (angstroms):
                    1          2          3          4          5
     1  C    0.000000
     2  C    1.428311   0.000000
     3  N    2.406014   1.322690   0.000000
     4  C    3.629136   2.319971   1.312773   0.000000
     5  C    4.815490   3.645072   2.412255   1.439978   0.000000
     6  C    5.088406   4.221459   2.899872   2.502965   1.418822
     7  C    6.450282   5.607655   4.285549   3.771728   2.445599
     8  C    7.443098   6.421505   5.121244   4.290622   2.850702
     9  C    7.266167   6.064444   4.861788   3.767485   2.450784
    10  C    6.087959   4.807827   3.694930   2.487857   1.416251
    11  N    1.359527   2.391662   3.613503   4.711624   6.010696
    12  C    2.309846   3.604536   4.713213   5.902160   7.124484
    13  C    2.781468   4.209395   5.053489   6.342105   7.385914
    14  C    2.426559   3.742569   4.256313   5.568475   6.426063
    15  C    1.428460   2.495205   2.880748   4.192069   5.069666
    16  H    2.156853   1.102075   2.120407   2.628420   4.065545
    17  H    4.031386   2.606264   2.102545   1.105589   2.178926
    18  H    4.409469   3.806324   2.564740   2.701048   2.151781
    19  H    6.893862   6.235271   4.938916   4.645643   3.428945
    20  H    8.486880   7.499051   6.191924   5.382092   3.942172
    21  H    8.217326   6.955779   5.813993   4.636116   3.433280
    22  H    6.289155   4.909464   4.007010   2.697079   2.163523
    23  H    3.285393   4.448277   5.647680   6.768246   8.054908
    24  H    3.870859   5.298204   6.132450   7.426308   8.444152
    25  H    3.422865   4.635801   4.932451   6.219532   6.894567
    26  H    2.164130   2.700702   2.546558   3.775149   4.386547
                    6          7          8          9         10
     6  C    0.000000
     7  C    1.386723   0.000000
     8  C    2.429560   1.401601   0.000000
     9  C    2.783479   2.403096   1.397491   0.000000
    10  C    2.412524   2.775484   2.424714   1.390333   0.000000
    11  N    6.406569   7.779534   8.722194   8.446334   7.199480
    12  C    7.349016   8.686440   9.732622   9.574821   8.379501
    13  C    7.341035   8.594114   9.769515   9.811063   8.735112
    14  C    6.190035   7.375296   8.613217   8.788394   7.821931
    15  C    4.936148   6.189929   7.365450   7.458554   6.456735
    16  H    4.918333   6.279062   6.914931   6.346543   4.998290
    17  H    3.473317   4.623848   4.888358   4.074178   2.686491
    18  H    1.090802   2.163668   3.423297   3.874180   3.395108
    19  H    2.144396   1.093654   2.161947   3.397114   3.869115
    20  H    3.419147   2.173756   1.091472   2.169798   3.416036
    21  H    3.877035   3.399174   2.160549   1.093596   2.149195
    22  H    3.405434   3.869106   3.412217   2.154265   1.093627
    23  H    8.369567   9.722336  10.727310  10.496411   9.256097
    24  H    8.334865   9.551615  10.763928  10.856890   9.804788
    25  H    6.439377   7.497063   8.811968   9.151397   8.309927
    26  H    4.029103   5.211735   6.448166   6.675951   5.801481
                   11         12         13         14         15
    11  N    0.000000
    12  C    1.325252   0.000000
    13  C    2.414372   1.394724   0.000000
    14  C    2.793586   2.383698   1.406169   0.000000
    15  C    2.416400   2.714272   2.406961   1.377694   0.000000
    16  H    2.567387   3.890341   4.784808   4.583032   3.460161
    17  H    4.876649   6.159847   6.812332   6.226340   4.879903
    18  H    5.764043   6.580085   6.432642   5.215322   4.031256
    19  H    8.249529   9.033742   8.774015   7.471781   6.411982
    20  H    9.780945  10.763290  10.741807   9.542942   8.334899
    21  H    9.347366  10.516907  10.819192   9.834000   8.490951
    22  H    7.259363   8.511809   9.031346   8.255177   6.877489
    23  H    2.056708   1.099148   2.155248   3.386765   3.813181
    24  H    3.387210   2.169374   1.090431   2.191339   3.408765
    25  H    3.887523   3.388002   2.174565   1.093940   2.144900
    26  H    3.382671   3.802213   3.413477   2.166905   1.089653
                   16         17         18         19         20
    16  H    0.000000
    17  H    2.427686   0.000000
    18  H    4.684760   3.793715   0.000000
    19  H    7.019080   5.581313   2.485803   0.000000
    20  H    8.006110   5.961024   4.327625   2.501409   0.000000
    21  H    7.122897   4.748131   4.967684   4.307517   2.500485
    22  H    4.854084   2.426437   4.297994   4.962740   4.315009
    23  H    4.519095   6.899152   7.638160  10.103746  11.772198
    24  H    5.842730   7.902133   7.388431   9.662966  11.713495
    25  H    5.557653   6.990055   5.390999   7.432968   9.667684
    26  H    3.789095   4.648652   3.049700   5.361579   7.377079
                   21         22         23         24         25
    21  H    0.000000
    22  H    2.469889   0.000000
    23  H   11.403744   9.300257   0.000000
    24  H   11.875975  10.117961   2.493148   0.000000
    25  H   10.225516   8.854892   4.309290   2.540665   0.000000
    26  H    7.739805   6.363157   4.900547   4.340588   2.508705
                   26
    26  H    0.000000
 Stoichiometry    C13H11N2(1-)
 Framework group  C1[X(C13H11N2)]
 Deg. of freedom    72
 Full point group                 C1      NOp   1
 Largest Abelian subgroup         C1      NOp   1
 Largest concise Abelian subgroup C1      NOp   1
                         Standard orientation:                         
 ---------------------------------------------------------------------
 Center     Atomic      Atomic             Coordinates (Angstroms)
 Number     Number       Type             X           Y           Z
 ---------------------------------------------------------------------
      1          6           0        2.427566   -0.447998   -0.000038
      2          6           0        1.188022   -1.157646    0.000117
      3          7           0        0.022997   -0.531366    0.000063
      4          6           0       -1.131949   -1.155443    0.000182
      5          6           0       -2.387922   -0.451122    0.000126
      6          6           0       -2.460473    0.965844   -0.000053
      7          6           0       -3.680545    1.624951   -0.000108
      8          6           0       -4.889517    0.915817    0.000014
      9          6           0       -4.838527   -0.480744    0.000196
     10          6           0       -3.619799   -1.149868    0.000252
     11          7           0        3.579653   -1.169808    0.000067
     12          6           0        4.736202   -0.522747   -0.000025
     13          6           0        4.879863    0.864558   -0.000232
     14          6           0        3.694750    1.621406   -0.000330
     15          6           0        2.475656    0.979653   -0.000227
     16          1           0        1.254166   -2.257734    0.000286
     17          1           0       -1.173519   -2.260250    0.000331
     18          1           0       -1.519539    1.517652   -0.000149
     19          1           0       -3.696048    2.718495   -0.000249
     20          1           0       -5.846481    1.440728   -0.000032
     21          1           0       -5.767051   -1.058495    0.000296
     22          1           0       -3.599897   -2.243314    0.000396
     23          1           0        5.636297   -1.153585    0.000048
     24          1           0        5.866481    1.328914   -0.000303
     25          1           0        3.736919    2.714533   -0.000484
     26          1           0        1.530159    1.521296   -0.000291
 ---------------------------------------------------------------------
 Rotational constants (GHZ):           2.2151660           0.2210131           0.2009625

 **********************************************************************

            Population analysis using the SCF Density.

 **********************************************************************

 Orbital symmetries:
       Occupied  (A) (A) (A) (A) (A) (A) (A) (A) (A) (A) (A) (A)
                 (A) (A) (A) (A) (A) (A) (A) (A) (A) (A) (A) (A)
                 (A) (A) (A) (A) (A) (A) (A) (A) (A) (A) (A) (A)
                 (A) (A) (A) (A) (A) (A) (A) (A) (A) (A) (A) (A)
                 (A) (A) (A) (A)
       Virtual   (A) (A) (A) (A) (A) (A) (A) (A) (A) (A) (A) (A)
                 (A) (A) (A) (A) (A) (A) (A) (A) (A) (A) (A) (A)
                 (A) (A) (A) (A) (A) (A) (A) (A) (A) (A) (A) (A)
                 (A) (A) (A) (A) (A) (A) (A) (A) (A) (A) (A) (A)
                 (A) (A) (A) (A) (A) (A) (A) (A) (A) (A) (A) (A)
                 (A) (A) (A) (A) (A) (A) (A) (A) (A) (A) (A) (A)
                 (A) (A) (A) (A) (A) (A) (A) (A) (A) (A) (A) (A)
                 (A) (A) (A) (A) (A) (A) (A) (A) (A) (A) (A) (A)
                 (A) (A) (A) (A) (A) (A) (A) (A) (A) (A) (A) (A)
                 (A) (A) (A) (A) (A) (A) (A) (A) (A) (A) (A) (A)
                 (A) (A) (A) (A) (A) (A) (A) (A) (A) (A) (A) (A)
                 (A) (A) (A) (A) (A) (A) (A) (A) (A) (A) (A) (A)
                 (A) (A) (A) (A) (A) (A) (A) (A) (A) (A) (A) (A)
                 (A) (A) (A) (A) (A) (A) (A) (A) (A) (A) (A) (A)
                 (A) (A) (A) (A) (A) (A) (A) (A) (A) (A) (A) (A)
                 (A) (A) (A) (A) (A) (A) (A) (A) (A) (A) (A) (A)
                 (A) (A) (A) (A) (A) (A) (A) (A) (A) (A) (A) (A)
                 (A) (A) (A) (A) (A) (A) (A) (A) (A)
 The electronic state is 1-A.
 Alpha  occ. eigenvalues --  -14.60242 -14.59962 -10.45113 -10.44127 -10.43479
 Alpha  occ. eigenvalues --  -10.43207 -10.42958 -10.42298 -10.42246 -10.41983
 Alpha  occ. eigenvalues --  -10.41673 -10.41363 -10.41115 -10.40583 -10.39560
 Alpha  occ. eigenvalues --   -0.89254  -0.86044  -0.81234  -0.74685  -0.72340
 Alpha  occ. eigenvalues --   -0.70131  -0.69747  -0.62345  -0.57316  -0.55828
 Alpha  occ. eigenvalues --   -0.54786  -0.52321  -0.48407  -0.45006  -0.44240
 Alpha  occ. eigenvalues --   -0.41761  -0.40271  -0.38486  -0.37678  -0.36079
 Alpha  occ. eigenvalues --   -0.35445  -0.34840  -0.33750  -0.33421  -0.31432
 Alpha  occ. eigenvalues --   -0.31188  -0.28956  -0.27368  -0.26919  -0.26355
 Alpha  occ. eigenvalues --   -0.20760  -0.19541  -0.17890  -0.17456  -0.15991
 Alpha  occ. eigenvalues --   -0.15947  -0.03874
 Alpha virt. eigenvalues --    0.12449   0.15796   0.15969   0.19841   0.21498
 Alpha virt. eigenvalues --    0.22333   0.24307   0.25703   0.26111   0.26876
 Alpha virt. eigenvalues --    0.27501   0.28553   0.29231   0.29612   0.34324
 Alpha virt. eigenvalues --    0.34762   0.35649   0.38322   0.39549   0.40861
 Alpha virt. eigenvalues --    0.43918   0.44385   0.45562   0.46641   0.47171
 Alpha virt. eigenvalues --    0.47499   0.48541   0.50278   0.50910   0.53222
 Alpha virt. eigenvalues --    0.54531   0.56151   0.56504   0.57937   0.58319
 Alpha virt. eigenvalues --    0.58961   0.59656   0.62407   0.63282   0.64379
 Alpha virt. eigenvalues --    0.64824   0.64966   0.65428   0.67123   0.67765
 Alpha virt. eigenvalues --    0.67783   0.68152   0.69390   0.71056   0.71311
 Alpha virt. eigenvalues --    0.71463   0.72214   0.75081   0.76864   0.77864
 Alpha virt. eigenvalues --    0.78403   0.78444   0.80800   0.80845   0.81902
 Alpha virt. eigenvalues --    0.82511   0.82803   0.82843   0.84421   0.85183
 Alpha virt. eigenvalues --    0.86568   0.87296   0.87506   0.87986   0.88541
 Alpha virt. eigenvalues --    0.90273   0.90446   0.91408   0.92153   0.92648
 Alpha virt. eigenvalues --    0.93482   0.95717   0.98054   0.98429   0.99913
 Alpha virt. eigenvalues --    1.00098   1.02387   1.02605   1.04348   1.08140
 Alpha virt. eigenvalues --    1.10087   1.12560   1.13088   1.18214   1.18623
 Alpha virt. eigenvalues --    1.21413   1.23824   1.27345   1.27892   1.30764
 Alpha virt. eigenvalues --    1.34347   1.35611   1.37020   1.37488   1.42182
 Alpha virt. eigenvalues --    1.43125   1.43199   1.43500   1.44530   1.44667
 Alpha virt. eigenvalues --    1.45114   1.45789   1.47937   1.48314   1.48827
 Alpha virt. eigenvalues --    1.50586   1.51987   1.52918   1.53035   1.58823
 Alpha virt. eigenvalues --    1.61783   1.67385   1.68638   1.73449   1.82837
 Alpha virt. eigenvalues --    1.83916   1.84276   1.84346   1.87151   1.88689
 Alpha virt. eigenvalues --    1.89248   1.90606   1.91353   1.92415   1.93001
 Alpha virt. eigenvalues --    1.93533   1.93687   1.93818   1.95120   1.95932
 Alpha virt. eigenvalues --    1.96582   1.97104   1.97301   2.00180   2.02113
 Alpha virt. eigenvalues --    2.05305   2.06648   2.07476   2.09537   2.10321
 Alpha virt. eigenvalues --    2.10920   2.12432   2.13540   2.14420   2.14425
 Alpha virt. eigenvalues --    2.14957   2.16556   2.19031   2.22042   2.23626
 Alpha virt. eigenvalues --    2.24505   2.26764   2.27657   2.29794   2.30064
 Alpha virt. eigenvalues --    2.30971   2.32752   2.32913   2.36008   2.39366
 Alpha virt. eigenvalues --    2.40792   2.43655   2.43679   2.44444   2.47834
 Alpha virt. eigenvalues --    2.48235   2.49264   2.50439   2.54144   2.55549
 Alpha virt. eigenvalues --    2.58776   2.61080   2.61273   2.65447   2.68308
 Alpha virt. eigenvalues --    2.69440   2.72364   2.76081   2.76961   2.78368
 Alpha virt. eigenvalues --    2.79256   2.83928   2.85666   2.85946   2.87184
 Alpha virt. eigenvalues --    2.88079   2.89096   2.90606   2.94903   2.96514
 Alpha virt. eigenvalues --    2.97149   2.99710   3.03252   3.04639   3.04847
 Alpha virt. eigenvalues --    3.09481   3.12610   3.18198   3.20358   3.24553
 Alpha virt. eigenvalues --    3.25772   3.30042   3.36437   3.46710   3.58567
 Alpha virt. eigenvalues --    3.68000   3.76687   3.80334
          Condensed to atoms (all electrons):
               1          2          3          4          5          6
     1  C    5.225666   0.267786  -0.102031   0.013507   0.000602  -0.000358
     2  C    0.267786   5.171153   0.533832  -0.113088   0.013170   0.000903
     3  N   -0.102031   0.533832   6.256676   0.565805  -0.107181   0.010208
     4  C    0.013507  -0.113088   0.565805   5.129253   0.295456  -0.080777
     5  C    0.000602   0.013170  -0.107181   0.295456   5.374955   0.237553
     6  C   -0.000358   0.000903   0.010208  -0.080777   0.237553   5.185099
     7  C   -0.000011   0.000022   0.001305   0.017415   0.079249   0.289197
     8  C    0.000000  -0.000000   0.000005  -0.001077  -0.140398   0.078463
     9  C    0.000000   0.000007  -0.000234   0.014281   0.082276  -0.131841
    10  C    0.000008  -0.000120   0.004283  -0.107335   0.308542   0.038849
    11  N    0.511070  -0.102978   0.002168  -0.000064   0.000002  -0.000000
    12  C   -0.052264   0.007281  -0.000103   0.000010  -0.000000  -0.000000
    13  C   -0.070170   0.001424  -0.000047   0.000000   0.000000   0.000000
    14  C   -0.005165   0.013544   0.001891  -0.000003  -0.000012   0.000002
    15  C    0.310192  -0.087582   0.014576   0.000083  -0.000366   0.000034
    16  H   -0.086289   0.387493  -0.059033  -0.014700  -0.001545   0.000321
    17  H   -0.001909  -0.010757  -0.058130   0.414342  -0.106532   0.016893
    18  H   -0.001123   0.000648   0.020173  -0.023131  -0.064868   0.452114
    19  H    0.000000  -0.000000  -0.000014  -0.000321   0.015469  -0.073943
    20  H   -0.000000   0.000000   0.000000   0.000039  -0.001466   0.014075
    21  H   -0.000000  -0.000000   0.000002  -0.000311   0.015581  -0.001693
    22  H   -0.000003  -0.000013   0.000122  -0.018581  -0.067749   0.016448
    23  H    0.006268  -0.000428   0.000001  -0.000000  -0.000000   0.000000
    24  H    0.000123   0.000076  -0.000000   0.000000  -0.000000   0.000000
    25  H    0.012955  -0.000412  -0.000009  -0.000000   0.000000  -0.000000
    26  H   -0.037564  -0.020480   0.018064   0.000741  -0.001055   0.000090
               7          8          9         10         11         12
     1  C   -0.000011   0.000000   0.000000   0.000008   0.511070  -0.052264
     2  C    0.000022  -0.000000   0.000007  -0.000120  -0.102978   0.007281
     3  N    0.001305   0.000005  -0.000234   0.004283   0.002168  -0.000103
     4  C    0.017415  -0.001077   0.014281  -0.107335  -0.000064   0.000010
     5  C    0.079249  -0.140398   0.082276   0.308542   0.000002  -0.000000
     6  C    0.289197   0.078463  -0.131841   0.038849  -0.000000  -0.000000
     7  C    5.128155   0.254694   0.088214  -0.142383  -0.000000   0.000000
     8  C    0.254694   5.209978   0.275259   0.075166  -0.000000   0.000000
     9  C    0.088214   0.275259   5.071513   0.316809   0.000000  -0.000000
    10  C   -0.142383   0.075166   0.316809   5.206113  -0.000000   0.000000
    11  N   -0.000000  -0.000000   0.000000  -0.000000   6.444464   0.543049
    12  C    0.000000   0.000000  -0.000000   0.000000   0.543049   4.755770
    13  C   -0.000000  -0.000000  -0.000000   0.000000  -0.046675   0.431090
    14  C    0.000000  -0.000000   0.000000  -0.000000  -0.051995   0.001609
    15  C    0.000003   0.000000  -0.000000  -0.000000  -0.064370  -0.080289
    16  H    0.000007  -0.000000  -0.000000  -0.000064   0.003294   0.000069
    17  H   -0.000162  -0.000105   0.000603  -0.018213  -0.000064  -0.000001
    18  H   -0.082615   0.014415  -0.001916   0.015881  -0.000002   0.000000
    19  H    0.443718  -0.082514   0.015294  -0.001726   0.000000  -0.000000
    20  H   -0.074973   0.442212  -0.075664   0.014669   0.000000   0.000000
    21  H    0.015043  -0.080858   0.440073  -0.073278  -0.000000   0.000000
    22  H   -0.001849   0.014770  -0.077250   0.437083  -0.000000   0.000000
    23  H    0.000000  -0.000000   0.000000  -0.000000  -0.047031   0.411534
    24  H   -0.000000   0.000000  -0.000000   0.000000   0.006495  -0.049082
    25  H    0.000000   0.000000  -0.000000  -0.000000  -0.000292   0.011444
    26  H    0.000036  -0.000001   0.000000  -0.000006   0.006534  -0.000415
              13         14         15         16         17         18
     1  C   -0.070170  -0.005165   0.310192  -0.086289  -0.001909  -0.001123
     2  C    0.001424   0.013544  -0.087582   0.387493  -0.010757   0.000648
     3  N   -0.000047   0.001891   0.014576  -0.059033  -0.058130   0.020173
     4  C    0.000000  -0.000003   0.000083  -0.014700   0.414342  -0.023131
     5  C    0.000000  -0.000012  -0.000366  -0.001545  -0.106532  -0.064868
     6  C    0.000000   0.000002   0.000034   0.000321   0.016893   0.452114
     7  C   -0.000000   0.000000   0.000003   0.000007  -0.000162  -0.082615
     8  C   -0.000000  -0.000000   0.000000  -0.000000  -0.000105   0.014415
     9  C   -0.000000   0.000000  -0.000000  -0.000000   0.000603  -0.001916
    10  C    0.000000  -0.000000  -0.000000  -0.000064  -0.018213   0.015881
    11  N   -0.046675  -0.051995  -0.064370   0.003294  -0.000064  -0.000002
    12  C    0.431090   0.001609  -0.080289   0.000069  -0.000001   0.000000
    13  C    5.142022   0.357988   0.014942   0.000145  -0.000000  -0.000000
    14  C    0.357988   4.968417   0.400747  -0.000147   0.000008   0.000043
    15  C    0.014942   0.400747   5.130073   0.023124   0.000372   0.000184
    16  H    0.000145  -0.000147   0.023124   0.793809   0.018327   0.000203
    17  H   -0.000000   0.000008   0.000372   0.018327   0.799557   0.001103
    18  H   -0.000000   0.000043   0.000184   0.000203   0.001103   0.686904
    19  H    0.000000   0.000000  -0.000000  -0.000000   0.000008  -0.013552
    20  H   -0.000000   0.000000   0.000000   0.000000  -0.000000  -0.000242
    21  H    0.000000   0.000000  -0.000000   0.000000   0.000017   0.000036
    22  H   -0.000000   0.000000   0.000000   0.000035   0.008240  -0.000243
    23  H   -0.084631   0.007265   0.001460  -0.000127   0.000000   0.000000
    24  H    0.412793  -0.067732   0.012353  -0.000007   0.000000   0.000000
    25  H   -0.075616   0.435803  -0.065987   0.000011  -0.000000   0.000003
    26  H    0.012466  -0.076069   0.428330   0.000699   0.000240   0.000998
              19         20         21         22         23         24
     1  C    0.000000  -0.000000  -0.000000  -0.000003   0.006268   0.000123
     2  C   -0.000000   0.000000  -0.000000  -0.000013  -0.000428   0.000076
     3  N   -0.000014   0.000000   0.000002   0.000122   0.000001  -0.000000
     4  C   -0.000321   0.000039  -0.000311  -0.018581  -0.000000   0.000000
     5  C    0.015469  -0.001466   0.015581  -0.067749  -0.000000  -0.000000
     6  C   -0.073943   0.014075  -0.001693   0.016448   0.000000   0.000000
     7  C    0.443718  -0.074973   0.015043  -0.001849   0.000000  -0.000000
     8  C   -0.082514   0.442212  -0.080858   0.014770  -0.000000   0.000000
     9  C    0.015294  -0.075664   0.440073  -0.077250   0.000000  -0.000000
    10  C   -0.001726   0.014669  -0.073278   0.437083  -0.000000   0.000000
    11  N    0.000000   0.000000  -0.000000  -0.000000  -0.047031   0.006495
    12  C   -0.000000   0.000000   0.000000   0.000000   0.411534  -0.049082
    13  C    0.000000  -0.000000   0.000000  -0.000000  -0.084631   0.412793
    14  C    0.000000   0.000000   0.000000   0.000000   0.007265  -0.067732
    15  C   -0.000000   0.000000  -0.000000   0.000000   0.001460   0.012353
    16  H   -0.000000   0.000000   0.000000   0.000035  -0.000127  -0.000007
    17  H    0.000008  -0.000000   0.000017   0.008240   0.000000   0.000000
    18  H   -0.013552  -0.000242   0.000036  -0.000243   0.000000   0.000000
    19  H    0.732344  -0.013255  -0.000355   0.000042   0.000000   0.000000
    20  H   -0.013255   0.737493  -0.013390  -0.000303   0.000000   0.000000
    21  H   -0.000355  -0.013390   0.737967  -0.014356  -0.000000   0.000000
    22  H    0.000042  -0.000303  -0.014356   0.730815  -0.000000   0.000000
    23  H    0.000000   0.000000  -0.000000  -0.000000   0.729383  -0.007285
    24  H    0.000000   0.000000   0.000000   0.000000  -0.007285   0.732195
    25  H   -0.000000  -0.000000  -0.000000  -0.000000  -0.000411  -0.012184
    26  H    0.000004   0.000000   0.000000   0.000000   0.000097  -0.000137
              25         26
     1  C    0.012955  -0.037564
     2  C   -0.000412  -0.020480
     3  N   -0.000009   0.018064
     4  C   -0.000000   0.000741
     5  C    0.000000  -0.001055
     6  C   -0.000000   0.000090
     7  C    0.000000   0.000036
     8  C    0.000000  -0.000001
     9  C   -0.000000   0.000000
    10  C   -0.000000  -0.000006
    11  N   -0.000292   0.006534
    12  C    0.011444  -0.000415
    13  C   -0.075616   0.012466
    14  C    0.435803  -0.076069
    15  C   -0.065987   0.428330
    16  H    0.000011   0.000699
    17  H   -0.000000   0.000240
    18  H    0.000003   0.000998
    19  H   -0.000000   0.000004
    20  H   -0.000000   0.000000
    21  H   -0.000000   0.000000
    22  H   -0.000000   0.000000
    23  H   -0.000411   0.000097
    24  H   -0.012184  -0.000137
    25  H    0.724074  -0.012527
    26  H   -0.012527   0.683000
 Mulliken charges:
               1
     1  C    0.008711
     2  C   -0.061479
     3  N   -0.102330
     4  C   -0.091546
     5  C    0.068317
     6  C   -0.051636
     7  C   -0.015066
     8  C   -0.060007
     9  C   -0.017426
    10  C   -0.074277
    11  N   -0.203603
    12  C    0.020298
    13  C   -0.095730
    14  C    0.013804
    15  C   -0.037879
    16  H   -0.065626
    17  H   -0.063836
    18  H   -0.005013
    19  H   -0.021200
    20  H   -0.029194
    21  H   -0.024478
    22  H   -0.027207
    23  H   -0.016095
    24  H   -0.027607
    25  H   -0.016850
    26  H   -0.003046
 Sum of Mulliken charges =  -1.00000
 Mulliken charges with hydrogens summed into heavy atoms:
               1
     1  C    0.008711
     2  C   -0.127105
     3  N   -0.102330
     4  C   -0.155382
     5  C    0.068317
     6  C   -0.056649
     7  C   -0.036266
     8  C   -0.089201
     9  C   -0.041904
    10  C   -0.101484
    11  N   -0.203603
    12  C    0.004204
    13  C   -0.123337
    14  C   -0.003046
    15  C   -0.040924
 Electronic spatial extent (au):  <R**2>=           5129.4909
 Charge=             -1.0000 electrons
 Dipole moment (field-independent basis, Debye):
    X=             -1.2297    Y=              2.0335    Z=             -0.0002  Tot=              2.3764
 Quadrupole moment (field-independent basis, Debye-Ang):
   XX=           -137.9198   YY=            -93.4693   ZZ=            -97.6174
   XY=              6.5394   XZ=              0.0003   YZ=             -0.0007
 Traceless Quadrupole moment (field-independent basis, Debye-Ang):
   XX=            -28.2510   YY=             16.1995   ZZ=             12.0515
   XY=              6.5394   XZ=              0.0003   YZ=             -0.0007
 Octapole moment (field-independent basis, Debye-Ang**2):
  XXX=              1.5829  YYY=             11.2772  ZZZ=              0.0001  XYY=            -12.1583
  XXY=              5.6536  XXZ=             -0.0003  XZZ=              6.1312  YZZ=             -1.6355
  YYZ=             -0.0016  XYZ=              0.0022
 Hexadecapole moment (field-independent basis, Debye-Ang**3):
 XXXX=          -7164.7473 YYYY=           -774.8974 ZZZZ=           -107.7922 XXXY=             63.5131
 XXXZ=              0.0897 YYYX=             28.9756 YYYZ=              0.0381 ZZZX=              0.0976
 ZZZY=              0.0511 XXYY=          -1255.7303 XXZZ=          -1217.1938 YYZZ=           -161.6279
 XXYZ=              0.0034 YYXZ=              0.0240 ZZXY=             -5.2147
 N-N= 8.180320278139D+02 E-N=-3.066133255425D+03  KE= 6.044181408683D+02
 Unable to Open any file for archive entry.
 1\1\GINC-NOTCH079\FOpt\RM062X\def2SVP\C13H11N2(1-)\U6067110\31-Jan-202
 6\0\\#N OPT FREQ=NORAMAN Integral(Ultrafine) M062X EmpiricalDispersion
 =GD3 def2SVP\\vsa2_crest_conformers-1\\-1,1\C,2.4121733264,-0.43283413
 71,0.0001224934\C,1.1746812803,-1.1460556694,0.0002776814\N,0.00785485
 36,-0.52313907,0.0002234741\C,-1.1452858436,-1.150545678,0.000342311\C
 ,-2.4032861697,-0.4498516835,0.0002862627\C,-2.4799243128,0.966898888,
 0.0001072812\C,-3.7018931956,1.6224837228,0.0000530718\C,-4.9088144178
 ,0.909864386,0.0001743167\C,-4.8537952099,-0.4865430997,0.0003565669\C
 ,-3.6331418444,-1.1521488519,0.0004122774\N,3.5663376254,-1.1513172704
 ,0.0002281075\C,4.7210151412,-0.5009231056,0.0001356042\C,4.8606735162
 ,0.8867911953,-0.0000711445\C,3.6733819769,1.6402171783,-0.0001689362\
 C,2.4561440733,0.9949487632,-0.0000658295\H,1.2439991258,-2.2459485551
 ,0.0004468792\H,-1.1836685293,-2.2554685891,0.0004918947\H,-1.54058640
 79,1.5214196567,0.0000115823\H,-3.7205513998,2.7159782431,-0.000088615
 6\H,-5.8672881303,1.432012485,0.0001287346\H,-5.7806480851,-1.06697067
 72,0.0004566214\H,-3.6100853417,-2.2455323974,0.0005563124\H,5.6229263
 359,-1.1291611909,0.0002082066\H,5.845947328,1.3539917056,-0.000141972
 2\H,3.7123960775,2.7334612307,-0.0003232821\H,1.5090882276,1.533862520
 7,-0.0001298993\\Version=ES64L-G16RevC.01\State=1-A\HF=-610.8190977\RM
 SD=9.615e-09\RMSF=3.001e-05\Dipole=-0.4861061,0.798643,-0.0000948\Quad
 rupole=-21.0316982,12.0717283,8.9599699,4.7664391,0.0001895,-0.0005545
 \PG=C01 [X(C13H11N2)]\\@
 The archive entry for this job was punched.


 THEREFORE SHALL EVIL COME UPON THEE...
 THOU SHALT NOT KNOW FROM WHENCE IT RISETH...
 AND MISCHIEF SHALL FALL UPON THEE...
 THOU SHALT NOT BE ABLE TO PUT IT OFF...
 AND DESOLATION SHALL COME UPON THEE SUDDENLY...
 WHICH THOU SHALT NOT KNOW...

                                         ISAIAH 47.11
 Job cpu time:       0 days  0 hours 49 minutes 49.7 seconds.
 Elapsed time:       0 days  0 hours  1 minutes 35.2 seconds.
 File lengths (MBytes):  RWF=     62 Int=      0 D2E=      0 Chk=      7 Scr=      2
 Normal termination of Gaussian 16 at Sat Jan 31 06:14:55 2026.
 Link1:  Proceeding to internal job step number  2.
 -------------------------------------------------------------------
 #N Geom=AllCheck Guess=TCheck SCRF=Check GenChk RM062X/def2SVP Freq
 -------------------------------------------------------------------
 1/10=4,29=7,30=1,38=1,40=1/1,3;
 2/12=2,40=1/2;
 3/5=43,7=101,11=2,14=-4,25=1,30=1,70=2,71=2,74=-55,75=-5,116=1,124=31,140=1/1,2,3;
 4/5=101/1;
 5/5=2,38=6,98=1/2;
 8/6=4,10=90,11=11/1;
 11/6=1,8=1,9=11,15=111,16=1/1,2,10;
 10/6=1/2;
 6/7=2,8=2,9=2,10=2,28=1/1;
 7/8=1,10=1,25=1/1,2,3,16;
 1/10=4,30=1/3;
 99//99;
 Structure from the checkpoint file:  "vsa2_crest_conformers-1.chk"
 -----------------------
 vsa2_crest_conformers-1
 -----------------------
 Charge = -1 Multiplicity = 1
 Redundant internal coordinates found in file.  (old form).
 C,0,2.4121733264,-0.4328341371,0.0001224934
 C,0,1.1746812803,-1.1460556694,0.0002776814
 N,0,0.0078548536,-0.52313907,0.0002234741
 C,0,-1.1452858436,-1.150545678,0.000342311
 C,0,-2.4032861697,-0.4498516835,0.0002862627
 C,0,-2.4799243128,0.966898888,0.0001072812
 C,0,-3.7018931956,1.6224837228,0.0000530718
 C,0,-4.9088144178,0.909864386,0.0001743167
 C,0,-4.8537952099,-0.4865430997,0.0003565669
 C,0,-3.6331418444,-1.1521488519,0.0004122774
 N,0,3.5663376254,-1.1513172704,0.0002281075
 C,0,4.7210151412,-0.5009231056,0.0001356042
 C,0,4.8606735162,0.8867911953,-0.0000711445
 C,0,3.6733819769,1.6402171783,-0.0001689362
 C,0,2.4561440733,0.9949487632,-0.0000658295
 H,0,1.2439991258,-2.2459485551,0.0004468792
 H,0,-1.1836685293,-2.2554685891,0.0004918947
 H,0,-1.5405864079,1.5214196567,0.0000115823
 H,0,-3.7205513998,2.7159782431,-0.0000886156
 H,0,-5.8672881303,1.432012485,0.0001287346
 H,0,-5.7806480851,-1.0669706772,0.0004566214
 H,0,-3.6100853417,-2.2455323974,0.0005563124
 H,0,5.6229263359,-1.1291611909,0.0002082066
 H,0,5.845947328,1.3539917056,-0.0001419722
 H,0,3.7123960775,2.7334612307,-0.0003232821
 H,0,1.5090882276,1.5338625207,-0.0001298993
 Recover connectivity data from disk.

 GradGradGradGradGradGradGradGradGradGradGradGradGradGradGradGradGradGrad
 Berny optimization.
 Initialization pass.
                           ----------------------------
                           !    Initial Parameters    !
                           ! (Angstroms and Degrees)  !
 --------------------------                            --------------------------
 ! Name  Definition              Value          Derivative Info.                !
 --------------------------------------------------------------------------------
 ! R1    R(1,2)                  1.4283         calculate D2E/DX2 analytically  !
 ! R2    R(1,11)                 1.3595         calculate D2E/DX2 analytically  !
 ! R3    R(1,15)                 1.4285         calculate D2E/DX2 analytically  !
 ! R4    R(2,3)                  1.3227         calculate D2E/DX2 analytically  !
 ! R5    R(2,16)                 1.1021         calculate D2E/DX2 analytically  !
 ! R6    R(3,4)                  1.3128         calculate D2E/DX2 analytically  !
 ! R7    R(4,5)                  1.44           calculate D2E/DX2 analytically  !
 ! R8    R(4,17)                 1.1056         calculate D2E/DX2 analytically  !
 ! R9    R(5,6)                  1.4188         calculate D2E/DX2 analytically  !
 ! R10   R(5,10)                 1.4163         calculate D2E/DX2 analytically  !
 ! R11   R(6,7)                  1.3867         calculate D2E/DX2 analytically  !
 ! R12   R(6,18)                 1.0908         calculate D2E/DX2 analytically  !
 ! R13   R(7,8)                  1.4016         calculate D2E/DX2 analytically  !
 ! R14   R(7,19)                 1.0937         calculate D2E/DX2 analytically  !
 ! R15   R(8,9)                  1.3975         calculate D2E/DX2 analytically  !
 ! R16   R(8,20)                 1.0915         calculate D2E/DX2 analytically  !
 ! R17   R(9,10)                 1.3903         calculate D2E/DX2 analytically  !
 ! R18   R(9,21)                 1.0936         calculate D2E/DX2 analytically  !
 ! R19   R(10,22)                1.0936         calculate D2E/DX2 analytically  !
 ! R20   R(11,12)                1.3253         calculate D2E/DX2 analytically  !
 ! R21   R(12,13)                1.3947         calculate D2E/DX2 analytically  !
 ! R22   R(12,23)                1.0991         calculate D2E/DX2 analytically  !
 ! R23   R(13,14)                1.4062         calculate D2E/DX2 analytically  !
 ! R24   R(13,24)                1.0904         calculate D2E/DX2 analytically  !
 ! R25   R(14,15)                1.3777         calculate D2E/DX2 analytically  !
 ! R26   R(14,25)                1.0939         calculate D2E/DX2 analytically  !
 ! R27   R(15,26)                1.0897         calculate D2E/DX2 analytically  !
 ! A1    A(2,1,11)             118.1404         calculate D2E/DX2 analytically  !
 ! A2    A(2,1,15)             121.7207         calculate D2E/DX2 analytically  !
 ! A3    A(11,1,15)            120.1389         calculate D2E/DX2 analytically  !
 ! A4    A(1,2,3)              121.9475         calculate D2E/DX2 analytically  !
 ! A5    A(1,2,16)             116.3506         calculate D2E/DX2 analytically  !
 ! A6    A(3,2,16)             121.7019         calculate D2E/DX2 analytically  !
 ! A7    A(2,3,4)              123.3543         calculate D2E/DX2 analytically  !
 ! A8    A(3,4,5)              122.3327         calculate D2E/DX2 analytically  !
 ! A9    A(3,4,17)             120.5395         calculate D2E/DX2 analytically  !
 ! A10   A(5,4,17)             117.1278         calculate D2E/DX2 analytically  !
 ! A11   A(4,5,6)              122.2137         calculate D2E/DX2 analytically  !
 ! A12   A(4,5,10)             121.1545         calculate D2E/DX2 analytically  !
 ! A13   A(6,5,10)             116.6318         calculate D2E/DX2 analytically  !
 ! A14   A(5,6,7)              121.3099         calculate D2E/DX2 analytically  !
 ! A15   A(5,6,18)             117.4583         calculate D2E/DX2 analytically  !
 ! A16   A(7,6,18)             121.2318         calculate D2E/DX2 analytically  !
 ! A17   A(6,7,8)              121.227          calculate D2E/DX2 analytically  !
 ! A18   A(6,7,19)             119.191          calculate D2E/DX2 analytically  !
 ! A19   A(8,7,19)             119.5819         calculate D2E/DX2 analytically  !
 ! A20   A(7,8,9)              118.3032         calculate D2E/DX2 analytically  !
 ! A21   A(7,8,20)             120.8603         calculate D2E/DX2 analytically  !
 ! A22   A(9,8,20)             120.8366         calculate D2E/DX2 analytically  !
 ! A23   A(8,9,10)             120.8594         calculate D2E/DX2 analytically  !
 ! A24   A(8,9,21)             119.7999         calculate D2E/DX2 analytically  !
 ! A25   A(10,9,21)            119.3407         calculate D2E/DX2 analytically  !
 ! A26   A(5,10,9)             121.6689         calculate D2E/DX2 analytically  !
 ! A27   A(5,10,22)            118.5201         calculate D2E/DX2 analytically  !
 ! A28   A(9,10,22)            119.8111         calculate D2E/DX2 analytically  !
 ! A29   A(1,11,12)            118.706          calculate D2E/DX2 analytically  !
 ! A30   A(11,12,13)           125.1381         calculate D2E/DX2 analytically  !
 ! A31   A(11,12,23)           115.7491         calculate D2E/DX2 analytically  !
 ! A32   A(13,12,23)           119.1128         calculate D2E/DX2 analytically  !
 ! A33   A(12,13,14)           116.6514         calculate D2E/DX2 analytically  !
 ! A34   A(12,13,24)           121.1164         calculate D2E/DX2 analytically  !
 ! A35   A(14,13,24)           122.2323         calculate D2E/DX2 analytically  !
 ! A36   A(13,14,15)           119.6733         calculate D2E/DX2 analytically  !
 ! A37   A(13,14,25)           120.3544         calculate D2E/DX2 analytically  !
 ! A38   A(15,14,25)           119.9723         calculate D2E/DX2 analytically  !
 ! A39   A(1,15,14)            119.6924         calculate D2E/DX2 analytically  !
 ! A40   A(1,15,26)            117.8777         calculate D2E/DX2 analytically  !
 ! A41   A(14,15,26)           122.4299         calculate D2E/DX2 analytically  !
 ! D1    D(11,1,2,3)           179.9983         calculate D2E/DX2 analytically  !
 ! D2    D(11,1,2,16)           -0.0016         calculate D2E/DX2 analytically  !
 ! D3    D(15,1,2,3)             0.0016         calculate D2E/DX2 analytically  !
 ! D4    D(15,1,2,16)         -179.9983         calculate D2E/DX2 analytically  !
 ! D5    D(2,1,11,12)         -179.9976         calculate D2E/DX2 analytically  !
 ! D6    D(15,1,11,12)          -0.0008         calculate D2E/DX2 analytically  !
 ! D7    D(2,1,15,14)          179.998          calculate D2E/DX2 analytically  !
 ! D8    D(2,1,15,26)           -0.0025         calculate D2E/DX2 analytically  !
 ! D9    D(11,1,15,14)           0.0014         calculate D2E/DX2 analytically  !
 ! D10   D(11,1,15,26)        -179.9991         calculate D2E/DX2 analytically  !
 ! D11   D(1,2,3,4)            179.999          calculate D2E/DX2 analytically  !
 ! D12   D(16,2,3,4)            -0.0011         calculate D2E/DX2 analytically  !
 ! D13   D(2,3,4,5)            179.9997         calculate D2E/DX2 analytically  !
 ! D14   D(2,3,4,17)            -0.0003         calculate D2E/DX2 analytically  !
 ! D15   D(3,4,5,6)             -0.0004         calculate D2E/DX2 analytically  !
 ! D16   D(3,4,5,10)           179.9998         calculate D2E/DX2 analytically  !
 ! D17   D(17,4,5,6)           179.9996         calculate D2E/DX2 analytically  !
 ! D18   D(17,4,5,10)           -0.0003         calculate D2E/DX2 analytically  !
 ! D19   D(4,5,6,7)            179.9999         calculate D2E/DX2 analytically  !
 ! D20   D(4,5,6,18)             0.0            calculate D2E/DX2 analytically  !
 ! D21   D(10,5,6,7)            -0.0003         calculate D2E/DX2 analytically  !
 ! D22   D(10,5,6,18)          179.9998         calculate D2E/DX2 analytically  !
 ! D23   D(4,5,10,9)          -179.9998         calculate D2E/DX2 analytically  !
 ! D24   D(4,5,10,22)            0.0001         calculate D2E/DX2 analytically  !
 ! D25   D(6,5,10,9)             0.0003         calculate D2E/DX2 analytically  !
 ! D26   D(6,5,10,22)         -179.9997         calculate D2E/DX2 analytically  !
 ! D27   D(5,6,7,8)              0.0001         calculate D2E/DX2 analytically  !
 ! D28   D(5,6,7,19)          -179.9998         calculate D2E/DX2 analytically  !
 ! D29   D(18,6,7,8)           179.9999         calculate D2E/DX2 analytically  !
 ! D30   D(18,6,7,19)            0.0            calculate D2E/DX2 analytically  !
 ! D31   D(6,7,8,9)              0.0002         calculate D2E/DX2 analytically  !
 ! D32   D(6,7,8,20)          -179.9999         calculate D2E/DX2 analytically  !
 ! D33   D(19,7,8,9)          -179.9999         calculate D2E/DX2 analytically  !
 ! D34   D(19,7,8,20)            0.0            calculate D2E/DX2 analytically  !
 ! D35   D(7,8,9,10)            -0.0002         calculate D2E/DX2 analytically  !
 ! D36   D(7,8,9,21)           179.9998         calculate D2E/DX2 analytically  !
 ! D37   D(20,8,9,10)          179.9999         calculate D2E/DX2 analytically  !
 ! D38   D(20,8,9,21)           -0.0001         calculate D2E/DX2 analytically  !
 ! D39   D(8,9,10,5)            -0.0001         calculate D2E/DX2 analytically  !
 ! D40   D(8,9,10,22)          180.0            calculate D2E/DX2 analytically  !
 ! D41   D(21,9,10,5)          179.9999         calculate D2E/DX2 analytically  !
 ! D42   D(21,9,10,22)          -0.0001         calculate D2E/DX2 analytically  !
 ! D43   D(1,11,12,13)          -0.0003         calculate D2E/DX2 analytically  !
 ! D44   D(1,11,12,23)        -179.9989         calculate D2E/DX2 analytically  !
 ! D45   D(11,12,13,14)          0.0009         calculate D2E/DX2 analytically  !
 ! D46   D(11,12,13,24)       -179.9997         calculate D2E/DX2 analytically  !
 ! D47   D(23,12,13,14)        179.9994         calculate D2E/DX2 analytically  !
 ! D48   D(23,12,13,24)         -0.0012         calculate D2E/DX2 analytically  !
 ! D49   D(12,13,14,15)         -0.0003         calculate D2E/DX2 analytically  !
 ! D50   D(12,13,14,25)        179.9995         calculate D2E/DX2 analytically  !
 ! D51   D(24,13,14,15)       -179.9997         calculate D2E/DX2 analytically  !
 ! D52   D(24,13,14,25)          0.0001         calculate D2E/DX2 analytically  !
 ! D53   D(13,14,15,1)          -0.0008         calculate D2E/DX2 analytically  !
 ! D54   D(13,14,15,26)        179.9997         calculate D2E/DX2 analytically  !
 ! D55   D(25,14,15,1)         179.9994         calculate D2E/DX2 analytically  !
 ! D56   D(25,14,15,26)         -0.0001         calculate D2E/DX2 analytically  !
 --------------------------------------------------------------------------------
 Trust Radius=3.00D-01 FncErr=1.00D-07 GrdErr=1.00D-07 EigMax=2.50D+02 EigMin=1.00D-04
 Number of steps in this run=      2 maximum allowed number of steps=      2.
 GradGradGradGradGradGradGradGradGradGradGradGradGradGradGradGradGradGrad

                          Input orientation:                          
 ---------------------------------------------------------------------
 Center     Atomic      Atomic             Coordinates (Angstroms)
 Number     Number       Type             X           Y           Z
 ---------------------------------------------------------------------
      1          6           0        2.412173   -0.432834    0.000122
      2          6           0        1.174681   -1.146056    0.000278
      3          7           0        0.007855   -0.523139    0.000223
      4          6           0       -1.145286   -1.150546    0.000342
      5          6           0       -2.403286   -0.449852    0.000286
      6          6           0       -2.479924    0.966899    0.000107
      7          6           0       -3.701893    1.622484    0.000053
      8          6           0       -4.908814    0.909864    0.000174
      9          6           0       -4.853795   -0.486543    0.000357
     10          6           0       -3.633142   -1.152149    0.000412
     11          7           0        3.566338   -1.151317    0.000228
     12          6           0        4.721015   -0.500923    0.000136
     13          6           0        4.860674    0.886791   -0.000071
     14          6           0        3.673382    1.640217   -0.000169
     15          6           0        2.456144    0.994949   -0.000066
     16          1           0        1.243999   -2.245949    0.000447
     17          1           0       -1.183669   -2.255469    0.000492
     18          1           0       -1.540586    1.521420    0.000012
     19          1           0       -3.720551    2.715978   -0.000089
     20          1           0       -5.867288    1.432012    0.000129
     21          1           0       -5.780648   -1.066971    0.000457
     22          1           0       -3.610085   -2.245532    0.000556
     23          1           0        5.622926   -1.129161    0.000208
     24          1           0        5.845947    1.353992   -0.000142
     25          1           0        3.712396    2.733461   -0.000323
     26          1           0        1.509088    1.533863   -0.000130
 ---------------------------------------------------------------------
                    Distance matrix (angstroms):
                    1          2          3          4          5
     1  C    0.000000
     2  C    1.428311   0.000000
     3  N    2.406014   1.322690   0.000000
     4  C    3.629136   2.319971   1.312773   0.000000
     5  C    4.815490   3.645072   2.412255   1.439978   0.000000
     6  C    5.088406   4.221459   2.899872   2.502965   1.418822
     7  C    6.450282   5.607655   4.285549   3.771728   2.445599
     8  C    7.443098   6.421505   5.121244   4.290622   2.850702
     9  C    7.266167   6.064444   4.861788   3.767485   2.450784
    10  C    6.087959   4.807827   3.694930   2.487857   1.416251
    11  N    1.359527   2.391662   3.613503   4.711624   6.010696
    12  C    2.309846   3.604536   4.713213   5.902160   7.124484
    13  C    2.781468   4.209395   5.053489   6.342105   7.385914
    14  C    2.426559   3.742569   4.256313   5.568475   6.426063
    15  C    1.428460   2.495205   2.880748   4.192069   5.069666
    16  H    2.156853   1.102075   2.120407   2.628420   4.065545
    17  H    4.031386   2.606264   2.102545   1.105589   2.178926
    18  H    4.409469   3.806324   2.564740   2.701048   2.151781
    19  H    6.893862   6.235271   4.938916   4.645643   3.428945
    20  H    8.486880   7.499051   6.191924   5.382092   3.942172
    21  H    8.217326   6.955779   5.813993   4.636116   3.433280
    22  H    6.289155   4.909464   4.007010   2.697079   2.163523
    23  H    3.285393   4.448277   5.647680   6.768246   8.054908
    24  H    3.870859   5.298204   6.132450   7.426308   8.444152
    25  H    3.422865   4.635801   4.932451   6.219532   6.894567
    26  H    2.164130   2.700702   2.546558   3.775149   4.386547
                    6          7          8          9         10
     6  C    0.000000
     7  C    1.386723   0.000000
     8  C    2.429560   1.401601   0.000000
     9  C    2.783479   2.403096   1.397491   0.000000
    10  C    2.412524   2.775484   2.424714   1.390333   0.000000
    11  N    6.406569   7.779534   8.722194   8.446334   7.199480
    12  C    7.349016   8.686440   9.732622   9.574821   8.379501
    13  C    7.341035   8.594114   9.769515   9.811063   8.735112
    14  C    6.190035   7.375296   8.613217   8.788394   7.821931
    15  C    4.936148   6.189929   7.365450   7.458554   6.456735
    16  H    4.918333   6.279062   6.914931   6.346543   4.998290
    17  H    3.473317   4.623848   4.888358   4.074178   2.686491
    18  H    1.090802   2.163668   3.423297   3.874180   3.395108
    19  H    2.144396   1.093654   2.161947   3.397114   3.869115
    20  H    3.419147   2.173756   1.091472   2.169798   3.416036
    21  H    3.877035   3.399174   2.160549   1.093596   2.149195
    22  H    3.405434   3.869106   3.412217   2.154265   1.093627
    23  H    8.369567   9.722336  10.727310  10.496411   9.256097
    24  H    8.334865   9.551615  10.763928  10.856890   9.804788
    25  H    6.439377   7.497063   8.811968   9.151397   8.309927
    26  H    4.029103   5.211735   6.448166   6.675951   5.801481
                   11         12         13         14         15
    11  N    0.000000
    12  C    1.325252   0.000000
    13  C    2.414372   1.394724   0.000000
    14  C    2.793586   2.383698   1.406169   0.000000
    15  C    2.416400   2.714272   2.406961   1.377694   0.000000
    16  H    2.567387   3.890341   4.784808   4.583032   3.460161
    17  H    4.876649   6.159847   6.812332   6.226340   4.879903
    18  H    5.764043   6.580085   6.432642   5.215322   4.031256
    19  H    8.249529   9.033742   8.774015   7.471781   6.411982
    20  H    9.780945  10.763290  10.741807   9.542942   8.334899
    21  H    9.347366  10.516907  10.819192   9.834000   8.490951
    22  H    7.259363   8.511809   9.031346   8.255177   6.877489
    23  H    2.056708   1.099148   2.155248   3.386765   3.813181
    24  H    3.387210   2.169374   1.090431   2.191339   3.408765
    25  H    3.887523   3.388002   2.174565   1.093940   2.144900
    26  H    3.382671   3.802213   3.413477   2.166905   1.089653
                   16         17         18         19         20
    16  H    0.000000
    17  H    2.427686   0.000000
    18  H    4.684760   3.793715   0.000000
    19  H    7.019080   5.581313   2.485803   0.000000
    20  H    8.006110   5.961024   4.327625   2.501409   0.000000
    21  H    7.122897   4.748131   4.967684   4.307517   2.500485
    22  H    4.854084   2.426437   4.297994   4.962740   4.315009
    23  H    4.519095   6.899152   7.638160  10.103746  11.772198
    24  H    5.842730   7.902133   7.388431   9.662966  11.713495
    25  H    5.557653   6.990055   5.390999   7.432968   9.667684
    26  H    3.789095   4.648652   3.049700   5.361579   7.377079
                   21         22         23         24         25
    21  H    0.000000
    22  H    2.469889   0.000000
    23  H   11.403744   9.300257   0.000000
    24  H   11.875975  10.117961   2.493148   0.000000
    25  H   10.225516   8.854892   4.309290   2.540665   0.000000
    26  H    7.739805   6.363157   4.900547   4.340588   2.508705
                   26
    26  H    0.000000
 Stoichiometry    C13H11N2(1-)
 Framework group  C1[X(C13H11N2)]
 Deg. of freedom    72
 Full point group                 C1      NOp   1
 Largest Abelian subgroup         C1      NOp   1
 Largest concise Abelian subgroup C1      NOp   1
                         Standard orientation:                         
 ---------------------------------------------------------------------
 Center     Atomic      Atomic             Coordinates (Angstroms)
 Number     Number       Type             X           Y           Z
 ---------------------------------------------------------------------
      1          6           0        2.427566   -0.447998   -0.000038
      2          6           0        1.188022   -1.157646    0.000117
      3          7           0        0.022997   -0.531366    0.000063
      4          6           0       -1.131949   -1.155443    0.000182
      5          6           0       -2.387922   -0.451122    0.000126
      6          6           0       -2.460473    0.965844   -0.000053
      7          6           0       -3.680545    1.624951   -0.000108
      8          6           0       -4.889517    0.915817    0.000014
      9          6           0       -4.838527   -0.480744    0.000196
     10          6           0       -3.619799   -1.149868    0.000252
     11          7           0        3.579653   -1.169808    0.000067
     12          6           0        4.736202   -0.522747   -0.000025
     13          6           0        4.879863    0.864558   -0.000232
     14          6           0        3.694750    1.621406   -0.000330
     15          6           0        2.475656    0.979653   -0.000227
     16          1           0        1.254166   -2.257734    0.000286
     17          1           0       -1.173519   -2.260250    0.000331
     18          1           0       -1.519539    1.517652   -0.000149
     19          1           0       -3.696048    2.718495   -0.000249
     20          1           0       -5.846481    1.440728   -0.000032
     21          1           0       -5.767051   -1.058495    0.000296
     22          1           0       -3.599897   -2.243314    0.000396
     23          1           0        5.636297   -1.153585    0.000048
     24          1           0        5.866481    1.328914   -0.000303
     25          1           0        3.736919    2.714533   -0.000484
     26          1           0        1.530159    1.521296   -0.000291
 ---------------------------------------------------------------------
 Rotational constants (GHZ):           2.2151660           0.2210131           0.2009625
 Standard basis: def2SVP (5D, 7F)
 There are   280 symmetry adapted cartesian basis functions of A   symmetry.
 There are   265 symmetry adapted basis functions of A   symmetry.
   265 basis functions,   452 primitive gaussians,   280 cartesian basis functions
    52 alpha electrons       52 beta electrons
       nuclear repulsion energy       818.0329884643 Hartrees.
 NAtoms=   26 NActive=   26 NUniq=   26 SFac= 1.00D+00 NAtFMM=   60 NAOKFM=F Big=F
 Integral buffers will be    131072 words long.
 Raffenetti 2 integral format.
 Two-electron integral symmetry is turned on.
 Nuclear repulsion after empirical dispersion term =      818.0320278139 Hartrees.
 One-electron integrals computed using PRISM.
   1 Symmetry operations used in ECPInt.
 ECPInt:  NShTT=    7626 NPrTT=   27958 LenC2=    6783 LenP2D=   17821.
 LDataN:  DoStor=T MaxTD1= 4 Len=   56
 NBasis=   265 RedAO= T EigKep=  3.03D-04  NBF=   265
 NBsUse=   265 1.00D-06 EigRej= -1.00D+00 NBFU=   265
 Initial guess from the checkpoint file:  "vsa2_crest_conformers-1.chk"
 B after Tr=     0.000000    0.000000   -0.000000
         Rot=    1.000000    0.000000   -0.000000   -0.000000 Ang=   0.00 deg.
 Requested convergence on RMS density matrix=1.00D-08 within 128 cycles.
 Requested convergence on MAX density matrix=1.00D-06.
 Requested convergence on             energy=1.00D-06.
 No special actions if energy rises.
 SCF Done:  E(RM062X) =  -610.819097684     A.U. after    1 cycles
            NFock=  1  Conv=0.33D-08     -V/T= 2.0106
 DoSCS=F DFT=T ScalE2(SS,OS)=  1.000000  1.000000
 Range of M.O.s used for correlation:     1   265
 NBasis=   265 NAE=    52 NBE=    52 NFC=     0 NFV=     0
 NROrb=    265 NOA=    52 NOB=    52 NVA=   213 NVB=   213

 **** Warning!!: The largest alpha MO coefficient is  0.16718656D+02

   1 Symmetry operations used in ECPInt.
 ECPInt:  NShTT=    7626 NPrTT=   27958 LenC2=    6783 LenP2D=   17821.
 LDataN:  DoStor=T MaxTD1= 5 Len=  102
 Symmetrizing basis deriv contribution to polar:
 IMax=3 JMax=2 DiffMx= 0.00D+00
 G2DrvN: will do    27 centers at a time, making    1 passes.
 Calling FoFCou, ICntrl=  3107 FMM=F I1Cent=   0 AccDes= 0.00D+00.
 End of G2Drv F.D. properties file   721 does not exist.
 End of G2Drv F.D. properties file   722 does not exist.
 End of G2Drv F.D. properties file   788 does not exist.
          IDoAtm=11111111111111111111111111
          Differentiating once with respect to electric field.
                with respect to dipole field.
          Differentiating once with respect to nuclear coordinates.
 Keep R1 ints in memory in canonical form, NReq=656706387.
          There are    81 degrees of freedom in the 1st order CPHF.  IDoFFX=6 NUNeed=     3.
     78 vectors produced by pass  0 Test12= 1.37D-14 1.23D-09 XBig12= 6.25D+02 2.30D+01.
 AX will form    78 AO Fock derivatives at one time.
     78 vectors produced by pass  1 Test12= 1.37D-14 1.23D-09 XBig12= 4.40D+01 1.14D+00.
     78 vectors produced by pass  2 Test12= 1.37D-14 1.23D-09 XBig12= 6.02D-01 1.01D-01.
     78 vectors produced by pass  3 Test12= 1.37D-14 1.23D-09 XBig12= 5.03D-03 7.73D-03.
     78 vectors produced by pass  4 Test12= 1.37D-14 1.23D-09 XBig12= 2.51D-05 5.74D-04.
     78 vectors produced by pass  5 Test12= 1.37D-14 1.23D-09 XBig12= 7.83D-08 2.86D-05.
     55 vectors produced by pass  6 Test12= 1.37D-14 1.23D-09 XBig12= 2.10D-10 1.20D-06.
      9 vectors produced by pass  7 Test12= 1.37D-14 1.23D-09 XBig12= 5.23D-13 7.75D-08.
      3 vectors produced by pass  8 Test12= 1.37D-14 1.23D-09 XBig12= 1.20D-15 3.32D-09.
 InvSVY:  IOpt=1 It=  1 EMax= 2.13D-14
 Solved reduced A of dimension   535 with    81 vectors.
 Isotropic polarizability for W=    0.000000      238.28 Bohr**3.
 End of Minotr F.D. properties file   721 does not exist.
 End of Minotr F.D. properties file   722 does not exist.
 End of Minotr F.D. properties file   788 does not exist.

 **********************************************************************

            Population analysis using the SCF Density.

 **********************************************************************

 Orbital symmetries:
       Occupied  (A) (A) (A) (A) (A) (A) (A) (A) (A) (A) (A) (A)
                 (A) (A) (A) (A) (A) (A) (A) (A) (A) (A) (A) (A)
                 (A) (A) (A) (A) (A) (A) (A) (A) (A) (A) (A) (A)
                 (A) (A) (A) (A) (A) (A) (A) (A) (A) (A) (A) (A)
                 (A) (A) (A) (A)
       Virtual   (A) (A) (A) (A) (A) (A) (A) (A) (A) (A) (A) (A)
                 (A) (A) (A) (A) (A) (A) (A) (A) (A) (A) (A) (A)
                 (A) (A) (A) (A) (A) (A) (A) (A) (A) (A) (A) (A)
                 (A) (A) (A) (A) (A) (A) (A) (A) (A) (A) (A) (A)
                 (A) (A) (A) (A) (A) (A) (A) (A) (A) (A) (A) (A)
                 (A) (A) (A) (A) (A) (A) (A) (A) (A) (A) (A) (A)
                 (A) (A) (A) (A) (A) (A) (A) (A) (A) (A) (A) (A)
                 (A) (A) (A) (A) (A) (A) (A) (A) (A) (A) (A) (A)
                 (A) (A) (A) (A) (A) (A) (A) (A) (A) (A) (A) (A)
                 (A) (A) (A) (A) (A) (A) (A) (A) (A) (A) (A) (A)
                 (A) (A) (A) (A) (A) (A) (A) (A) (A) (A) (A) (A)
                 (A) (A) (A) (A) (A) (A) (A) (A) (A) (A) (A) (A)
                 (A) (A) (A) (A) (A) (A) (A) (A) (A) (A) (A) (A)
                 (A) (A) (A) (A) (A) (A) (A) (A) (A) (A) (A) (A)
                 (A) (A) (A) (A) (A) (A) (A) (A) (A) (A) (A) (A)
                 (A) (A) (A) (A) (A) (A) (A) (A) (A) (A) (A) (A)
                 (A) (A) (A) (A) (A) (A) (A) (A) (A) (A) (A) (A)
                 (A) (A) (A) (A) (A) (A) (A) (A) (A)
 The electronic state is 1-A.
 Alpha  occ. eigenvalues --  -14.60242 -14.59962 -10.45113 -10.44127 -10.43479
 Alpha  occ. eigenvalues --  -10.43207 -10.42958 -10.42298 -10.42246 -10.41983
 Alpha  occ. eigenvalues --  -10.41673 -10.41363 -10.41115 -10.40583 -10.39560
 Alpha  occ. eigenvalues --   -0.89254  -0.86044  -0.81234  -0.74685  -0.72340
 Alpha  occ. eigenvalues --   -0.70131  -0.69747  -0.62345  -0.57316  -0.55828
 Alpha  occ. eigenvalues --   -0.54786  -0.52321  -0.48407  -0.45006  -0.44240
 Alpha  occ. eigenvalues --   -0.41761  -0.40271  -0.38486  -0.37678  -0.36079
 Alpha  occ. eigenvalues --   -0.35445  -0.34840  -0.33750  -0.33421  -0.31432
 Alpha  occ. eigenvalues --   -0.31188  -0.28956  -0.27368  -0.26919  -0.26355
 Alpha  occ. eigenvalues --   -0.20760  -0.19541  -0.17890  -0.17456  -0.15991
 Alpha  occ. eigenvalues --   -0.15947  -0.03874
 Alpha virt. eigenvalues --    0.12449   0.15796   0.15969   0.19841   0.21498
 Alpha virt. eigenvalues --    0.22333   0.24307   0.25703   0.26111   0.26876
 Alpha virt. eigenvalues --    0.27501   0.28553   0.29231   0.29612   0.34324
 Alpha virt. eigenvalues --    0.34762   0.35649   0.38322   0.39549   0.40861
 Alpha virt. eigenvalues --    0.43918   0.44385   0.45562   0.46641   0.47171
 Alpha virt. eigenvalues --    0.47499   0.48541   0.50278   0.50910   0.53222
 Alpha virt. eigenvalues --    0.54531   0.56151   0.56504   0.57937   0.58319
 Alpha virt. eigenvalues --    0.58961   0.59656   0.62407   0.63282   0.64379
 Alpha virt. eigenvalues --    0.64824   0.64966   0.65428   0.67123   0.67765
 Alpha virt. eigenvalues --    0.67783   0.68152   0.69390   0.71056   0.71311
 Alpha virt. eigenvalues --    0.71463   0.72214   0.75081   0.76864   0.77864
 Alpha virt. eigenvalues --    0.78403   0.78444   0.80800   0.80845   0.81902
 Alpha virt. eigenvalues --    0.82511   0.82803   0.82843   0.84421   0.85183
 Alpha virt. eigenvalues --    0.86568   0.87296   0.87506   0.87986   0.88541
 Alpha virt. eigenvalues --    0.90273   0.90446   0.91408   0.92153   0.92648
 Alpha virt. eigenvalues --    0.93482   0.95717   0.98054   0.98429   0.99913
 Alpha virt. eigenvalues --    1.00098   1.02387   1.02605   1.04348   1.08140
 Alpha virt. eigenvalues --    1.10087   1.12560   1.13088   1.18214   1.18623
 Alpha virt. eigenvalues --    1.21413   1.23824   1.27345   1.27892   1.30764
 Alpha virt. eigenvalues --    1.34347   1.35611   1.37020   1.37488   1.42182
 Alpha virt. eigenvalues --    1.43125   1.43199   1.43500   1.44530   1.44667
 Alpha virt. eigenvalues --    1.45114   1.45789   1.47937   1.48314   1.48827
 Alpha virt. eigenvalues --    1.50586   1.51987   1.52918   1.53035   1.58823
 Alpha virt. eigenvalues --    1.61783   1.67385   1.68638   1.73449   1.82837
 Alpha virt. eigenvalues --    1.83916   1.84276   1.84346   1.87151   1.88689
 Alpha virt. eigenvalues --    1.89248   1.90606   1.91353   1.92415   1.93001
 Alpha virt. eigenvalues --    1.93533   1.93687   1.93818   1.95120   1.95932
 Alpha virt. eigenvalues --    1.96582   1.97104   1.97301   2.00180   2.02113
 Alpha virt. eigenvalues --    2.05305   2.06648   2.07476   2.09537   2.10321
 Alpha virt. eigenvalues --    2.10920   2.12432   2.13540   2.14420   2.14425
 Alpha virt. eigenvalues --    2.14957   2.16556   2.19031   2.22042   2.23626
 Alpha virt. eigenvalues --    2.24505   2.26764   2.27657   2.29794   2.30064
 Alpha virt. eigenvalues --    2.30971   2.32752   2.32913   2.36008   2.39366
 Alpha virt. eigenvalues --    2.40792   2.43655   2.43679   2.44444   2.47834
 Alpha virt. eigenvalues --    2.48235   2.49264   2.50439   2.54144   2.55549
 Alpha virt. eigenvalues --    2.58776   2.61080   2.61273   2.65447   2.68308
 Alpha virt. eigenvalues --    2.69440   2.72364   2.76081   2.76961   2.78368
 Alpha virt. eigenvalues --    2.79256   2.83928   2.85666   2.85946   2.87184
 Alpha virt. eigenvalues --    2.88079   2.89096   2.90606   2.94903   2.96514
 Alpha virt. eigenvalues --    2.97149   2.99710   3.03252   3.04639   3.04847
 Alpha virt. eigenvalues --    3.09481   3.12610   3.18198   3.20358   3.24553
 Alpha virt. eigenvalues --    3.25772   3.30042   3.36437   3.46710   3.58567
 Alpha virt. eigenvalues --    3.68000   3.76687   3.80334
          Condensed to atoms (all electrons):
               1          2          3          4          5          6
     1  C    5.225665   0.267786  -0.102031   0.013507   0.000602  -0.000358
     2  C    0.267786   5.171153   0.533832  -0.113088   0.013170   0.000903
     3  N   -0.102031   0.533832   6.256676   0.565805  -0.107181   0.010208
     4  C    0.013507  -0.113088   0.565805   5.129254   0.295456  -0.080777
     5  C    0.000602   0.013170  -0.107181   0.295456   5.374954   0.237553
     6  C   -0.000358   0.000903   0.010208  -0.080777   0.237553   5.185098
     7  C   -0.000011   0.000022   0.001305   0.017415   0.079249   0.289197
     8  C    0.000000  -0.000000   0.000005  -0.001077  -0.140398   0.078463
     9  C    0.000000   0.000007  -0.000234   0.014281   0.082276  -0.131841
    10  C    0.000008  -0.000120   0.004283  -0.107335   0.308542   0.038849
    11  N    0.511070  -0.102978   0.002168  -0.000064   0.000002  -0.000000
    12  C   -0.052264   0.007281  -0.000103   0.000010  -0.000000  -0.000000
    13  C   -0.070170   0.001424  -0.000047   0.000000   0.000000   0.000000
    14  C   -0.005165   0.013544   0.001891  -0.000003  -0.000012   0.000002
    15  C    0.310192  -0.087582   0.014576   0.000083  -0.000366   0.000034
    16  H   -0.086289   0.387493  -0.059033  -0.014700  -0.001545   0.000321
    17  H   -0.001909  -0.010757  -0.058130   0.414342  -0.106532   0.016893
    18  H   -0.001123   0.000648   0.020173  -0.023131  -0.064868   0.452114
    19  H    0.000000  -0.000000  -0.000014  -0.000321   0.015469  -0.073943
    20  H   -0.000000   0.000000   0.000000   0.000039  -0.001466   0.014075
    21  H   -0.000000  -0.000000   0.000002  -0.000311   0.015581  -0.001693
    22  H   -0.000003  -0.000013   0.000122  -0.018581  -0.067749   0.016448
    23  H    0.006268  -0.000428   0.000001  -0.000000  -0.000000   0.000000
    24  H    0.000123   0.000076  -0.000000   0.000000  -0.000000   0.000000
    25  H    0.012955  -0.000412  -0.000009  -0.000000   0.000000  -0.000000
    26  H   -0.037564  -0.020480   0.018064   0.000741  -0.001055   0.000090
               7          8          9         10         11         12
     1  C   -0.000011   0.000000   0.000000   0.000008   0.511070  -0.052264
     2  C    0.000022  -0.000000   0.000007  -0.000120  -0.102978   0.007281
     3  N    0.001305   0.000005  -0.000234   0.004283   0.002168  -0.000103
     4  C    0.017415  -0.001077   0.014281  -0.107335  -0.000064   0.000010
     5  C    0.079249  -0.140398   0.082276   0.308542   0.000002  -0.000000
     6  C    0.289197   0.078463  -0.131841   0.038849  -0.000000  -0.000000
     7  C    5.128155   0.254694   0.088214  -0.142383  -0.000000   0.000000
     8  C    0.254694   5.209979   0.275259   0.075165  -0.000000   0.000000
     9  C    0.088214   0.275259   5.071514   0.316809   0.000000  -0.000000
    10  C   -0.142383   0.075165   0.316809   5.206113  -0.000000   0.000000
    11  N   -0.000000  -0.000000   0.000000  -0.000000   6.444463   0.543049
    12  C    0.000000   0.000000  -0.000000   0.000000   0.543049   4.755771
    13  C   -0.000000  -0.000000  -0.000000   0.000000  -0.046675   0.431090
    14  C    0.000000  -0.000000   0.000000  -0.000000  -0.051995   0.001609
    15  C    0.000003   0.000000  -0.000000  -0.000000  -0.064370  -0.080289
    16  H    0.000007  -0.000000  -0.000000  -0.000064   0.003294   0.000069
    17  H   -0.000162  -0.000105   0.000603  -0.018213  -0.000064  -0.000001
    18  H   -0.082615   0.014415  -0.001916   0.015881  -0.000002   0.000000
    19  H    0.443718  -0.082514   0.015294  -0.001726   0.000000  -0.000000
    20  H   -0.074973   0.442212  -0.075664   0.014669   0.000000   0.000000
    21  H    0.015043  -0.080858   0.440073  -0.073278  -0.000000   0.000000
    22  H   -0.001849   0.014770  -0.077250   0.437083  -0.000000   0.000000
    23  H    0.000000  -0.000000   0.000000  -0.000000  -0.047031   0.411534
    24  H   -0.000000   0.000000  -0.000000   0.000000   0.006495  -0.049082
    25  H    0.000000   0.000000  -0.000000  -0.000000  -0.000292   0.011444
    26  H    0.000036  -0.000001   0.000000  -0.000006   0.006534  -0.000415
              13         14         15         16         17         18
     1  C   -0.070170  -0.005165   0.310192  -0.086289  -0.001909  -0.001123
     2  C    0.001424   0.013544  -0.087582   0.387493  -0.010757   0.000648
     3  N   -0.000047   0.001891   0.014576  -0.059033  -0.058130   0.020173
     4  C    0.000000  -0.000003   0.000083  -0.014700   0.414342  -0.023131
     5  C    0.000000  -0.000012  -0.000366  -0.001545  -0.106532  -0.064868
     6  C    0.000000   0.000002   0.000034   0.000321   0.016893   0.452114
     7  C   -0.000000   0.000000   0.000003   0.000007  -0.000162  -0.082615
     8  C   -0.000000  -0.000000   0.000000  -0.000000  -0.000105   0.014415
     9  C   -0.000000   0.000000  -0.000000  -0.000000   0.000603  -0.001916
    10  C    0.000000  -0.000000  -0.000000  -0.000064  -0.018213   0.015881
    11  N   -0.046675  -0.051995  -0.064370   0.003294  -0.000064  -0.000002
    12  C    0.431090   0.001609  -0.080289   0.000069  -0.000001   0.000000
    13  C    5.142023   0.357988   0.014942   0.000145  -0.000000  -0.000000
    14  C    0.357988   4.968417   0.400747  -0.000147   0.000008   0.000043
    15  C    0.014942   0.400747   5.130073   0.023124   0.000372   0.000184
    16  H    0.000145  -0.000147   0.023124   0.793809   0.018327   0.000203
    17  H   -0.000000   0.000008   0.000372   0.018327   0.799557   0.001103
    18  H   -0.000000   0.000043   0.000184   0.000203   0.001103   0.686904
    19  H    0.000000   0.000000  -0.000000  -0.000000   0.000008  -0.013552
    20  H   -0.000000   0.000000   0.000000   0.000000  -0.000000  -0.000242
    21  H    0.000000   0.000000  -0.000000   0.000000   0.000017   0.000036
    22  H   -0.000000   0.000000   0.000000   0.000035   0.008240  -0.000243
    23  H   -0.084631   0.007265   0.001460  -0.000127   0.000000   0.000000
    24  H    0.412793  -0.067732   0.012353  -0.000007   0.000000   0.000000
    25  H   -0.075616   0.435803  -0.065987   0.000011  -0.000000   0.000003
    26  H    0.012466  -0.076069   0.428329   0.000699   0.000240   0.000998
              19         20         21         22         23         24
     1  C    0.000000  -0.000000  -0.000000  -0.000003   0.006268   0.000123
     2  C   -0.000000   0.000000  -0.000000  -0.000013  -0.000428   0.000076
     3  N   -0.000014   0.000000   0.000002   0.000122   0.000001  -0.000000
     4  C   -0.000321   0.000039  -0.000311  -0.018581  -0.000000   0.000000
     5  C    0.015469  -0.001466   0.015581  -0.067749  -0.000000  -0.000000
     6  C   -0.073943   0.014075  -0.001693   0.016448   0.000000   0.000000
     7  C    0.443718  -0.074973   0.015043  -0.001849   0.000000  -0.000000
     8  C   -0.082514   0.442212  -0.080858   0.014770  -0.000000   0.000000
     9  C    0.015294  -0.075664   0.440073  -0.077250   0.000000  -0.000000
    10  C   -0.001726   0.014669  -0.073278   0.437083  -0.000000   0.000000
    11  N    0.000000   0.000000  -0.000000  -0.000000  -0.047031   0.006495
    12  C   -0.000000   0.000000   0.000000   0.000000   0.411534  -0.049082
    13  C    0.000000  -0.000000   0.000000  -0.000000  -0.084631   0.412793
    14  C    0.000000   0.000000   0.000000   0.000000   0.007265  -0.067732
    15  C   -0.000000   0.000000  -0.000000   0.000000   0.001460   0.012353
    16  H   -0.000000   0.000000   0.000000   0.000035  -0.000127  -0.000007
    17  H    0.000008  -0.000000   0.000017   0.008240   0.000000   0.000000
    18  H   -0.013552  -0.000242   0.000036  -0.000243   0.000000   0.000000
    19  H    0.732344  -0.013255  -0.000355   0.000042   0.000000   0.000000
    20  H   -0.013255   0.737493  -0.013390  -0.000303   0.000000   0.000000
    21  H   -0.000355  -0.013390   0.737967  -0.014356  -0.000000   0.000000
    22  H    0.000042  -0.000303  -0.014356   0.730815  -0.000000   0.000000
    23  H    0.000000   0.000000  -0.000000  -0.000000   0.729383  -0.007285
    24  H    0.000000   0.000000   0.000000   0.000000  -0.007285   0.732195
    25  H   -0.000000  -0.000000  -0.000000  -0.000000  -0.000411  -0.012184
    26  H    0.000004   0.000000   0.000000   0.000000   0.000097  -0.000137
              25         26
     1  C    0.012955  -0.037564
     2  C   -0.000412  -0.020480
     3  N   -0.000009   0.018064
     4  C   -0.000000   0.000741
     5  C    0.000000  -0.001055
     6  C   -0.000000   0.000090
     7  C    0.000000   0.000036
     8  C    0.000000  -0.000001
     9  C   -0.000000   0.000000
    10  C   -0.000000  -0.000006
    11  N   -0.000292   0.006534
    12  C    0.011444  -0.000415
    13  C   -0.075616   0.012466
    14  C    0.435803  -0.076069
    15  C   -0.065987   0.428329
    16  H    0.000011   0.000699
    17  H   -0.000000   0.000240
    18  H    0.000003   0.000998
    19  H   -0.000000   0.000004
    20  H   -0.000000   0.000000
    21  H   -0.000000   0.000000
    22  H   -0.000000   0.000000
    23  H   -0.000411   0.000097
    24  H   -0.012184  -0.000137
    25  H    0.724074  -0.012527
    26  H   -0.012527   0.683000
 Mulliken charges:
               1
     1  C    0.008711
     2  C   -0.061478
     3  N   -0.102331
     4  C   -0.091546
     5  C    0.068317
     6  C   -0.051635
     7  C   -0.015066
     8  C   -0.060008
     9  C   -0.017426
    10  C   -0.074277
    11  N   -0.203602
    12  C    0.020298
    13  C   -0.095730
    14  C    0.013804
    15  C   -0.037878
    16  H   -0.065626
    17  H   -0.063836
    18  H   -0.005013
    19  H   -0.021200
    20  H   -0.029194
    21  H   -0.024478
    22  H   -0.027207
    23  H   -0.016095
    24  H   -0.027607
    25  H   -0.016850
    26  H   -0.003046
 Sum of Mulliken charges =  -1.00000
 Mulliken charges with hydrogens summed into heavy atoms:
               1
     1  C    0.008711
     2  C   -0.127104
     3  N   -0.102331
     4  C   -0.155382
     5  C    0.068317
     6  C   -0.056648
     7  C   -0.036266
     8  C   -0.089202
     9  C   -0.041904
    10  C   -0.101484
    11  N   -0.203602
    12  C    0.004203
    13  C   -0.123337
    14  C   -0.003047
    15  C   -0.040924
 APT charges:
               1
     1  C    1.361227
     2  C   -1.378554
     3  N    1.210153
     4  C   -1.243000
     5  C    1.022335
     6  C   -0.322273
     7  C    0.257337
     8  C   -0.447102
     9  C    0.261487
    10  C   -0.532113
    11  N   -1.060585
    12  C    0.588728
    13  C   -0.620931
    14  C    0.488663
    15  C   -0.453567
    16  H   -0.045827
    17  H   -0.070839
    18  H    0.050246
    19  H   -0.006094
    20  H   -0.010467
    21  H   -0.027766
    22  H    0.008295
    23  H   -0.076378
    24  H   -0.004816
    25  H   -0.002217
    26  H    0.054057
 Sum of APT charges =  -1.00000
 APT charges with hydrogens summed into heavy atoms:
               1
     1  C    1.361227
     2  C   -1.424381
     3  N    1.210153
     4  C   -1.313839
     5  C    1.022335
     6  C   -0.272028
     7  C    0.251244
     8  C   -0.457569
     9  C    0.233721
    10  C   -0.523818
    11  N   -1.060585
    12  C    0.512350
    13  C   -0.625746
    14  C    0.486446
    15  C   -0.399510
 Electronic spatial extent (au):  <R**2>=           5129.4910
 Charge=             -1.0000 electrons
 Dipole moment (field-independent basis, Debye):
    X=             -1.2297    Y=              2.0335    Z=             -0.0002  Tot=              2.3764
 Quadrupole moment (field-independent basis, Debye-Ang):
   XX=           -137.9199   YY=            -93.4693   ZZ=            -97.6174
   XY=              6.5394   XZ=              0.0003   YZ=             -0.0007
 Traceless Quadrupole moment (field-independent basis, Debye-Ang):
   XX=            -28.2510   YY=             16.1995   ZZ=             12.0515
   XY=              6.5394   XZ=              0.0003   YZ=             -0.0007
 Octapole moment (field-independent basis, Debye-Ang**2):
  XXX=              1.5830  YYY=             11.2772  ZZZ=              0.0001  XYY=            -12.1583
  XXY=              5.6534  XXZ=             -0.0003  XZZ=              6.1312  YZZ=             -1.6355
  YYZ=             -0.0016  XYZ=              0.0022
 Hexadecapole moment (field-independent basis, Debye-Ang**3):
 XXXX=          -7164.7483 YYYY=           -774.8973 ZZZZ=           -107.7922 XXXY=             63.5130
 XXXZ=              0.0897 YYYX=             28.9755 YYYZ=              0.0381 ZZZX=              0.0976
 ZZZY=              0.0511 XXYY=          -1255.7303 XXZZ=          -1217.1938 YYZZ=           -161.6279
 XXYZ=              0.0034 YYXZ=              0.0240 ZZXY=             -5.2147
 N-N= 8.180320278139D+02 E-N=-3.066133257559D+03  KE= 6.044181420749D+02
  Exact polarizability:     484.637       6.573     164.377      -0.012      -0.014      65.827
 Approx polarizability:     528.005       5.620     226.668      -0.012      -0.018      93.822
   1 Symmetry operations used in ECPInt.
 ECPInt:  NShTT=    7626 NPrTT=   27958 LenC2=    6783 LenP2D=   17821.
 LDataN:  DoStor=T MaxTD1= 6 Len=  172
 Calling FoFJK, ICntrl=    100127 FMM=F ISym2X=0 I1Cent= 0 IOpClX= 0 NMat=1 NMatS=1 NMatT=0.
 Full mass-weighted force constant matrix:
 Low frequencies ---   -3.1004   -2.2918   -0.0012    0.0004    0.0012    5.4732
 Low frequencies ---   48.7920   53.3728   53.4522
 Diagonal vibrational polarizability:
      124.8197575       7.8994807      20.4562069
 Harmonic frequencies (cm**-1), IR intensities (KM/Mole), Raman scattering
 activities (A**4/AMU), depolarization ratios for plane and unpolarized
 incident light, reduced masses (AMU), force constants (mDyne/A),
 and normal coordinates:
                      1                      2                      3
                      A                      A                      A
 Frequencies --     48.7910                53.3471                53.4521
 Red. masses --      4.1359                 5.0204                 4.4374
 Frc consts  --      0.0058                 0.0084                 0.0075
 IR Inten    --      0.8595                 0.3468                 0.0264
  Atom  AN      X      Y      Z        X      Y      Z        X      Y      Z
     1   6    -0.00  -0.00  -0.07     0.03   0.06   0.00     0.00   0.00  -0.04
     2   6    -0.00  -0.00  -0.14    -0.02   0.15   0.00    -0.00   0.00  -0.07
     3   7    -0.00  -0.00  -0.13    -0.00   0.18   0.00    -0.00   0.00  -0.13
     4   6    -0.00  -0.00  -0.08     0.01   0.15   0.00     0.00   0.00  -0.14
     5   6     0.00  -0.00  -0.05    -0.03   0.07   0.00    -0.00   0.00  -0.07
     6   6     0.00  -0.00  -0.22    -0.15   0.06  -0.00    -0.00   0.00   0.04
     7   6     0.00  -0.00  -0.16    -0.21  -0.04  -0.00    -0.00  -0.00   0.15
     8   6     0.00   0.00   0.08    -0.15  -0.14  -0.00    -0.00  -0.00   0.16
     9   6     0.00   0.00   0.25    -0.03  -0.14  -0.00    -0.00  -0.00   0.04
    10   6     0.00   0.00   0.19     0.03  -0.03   0.00     0.00  -0.00  -0.07
    11   7    -0.00  -0.00  -0.06    -0.03  -0.03  -0.00    -0.00  -0.00   0.19
    12   6    -0.00   0.00   0.05     0.02  -0.14  -0.00     0.00  -0.00   0.26
    13   6    -0.00   0.00   0.16     0.14  -0.15  -0.00     0.00  -0.00   0.09
    14   6    -0.00   0.00   0.14     0.21  -0.05   0.00     0.00  -0.00  -0.17
    15   6    -0.00   0.00   0.02     0.15   0.06   0.00     0.00   0.00  -0.24
    16   1     0.00  -0.00  -0.15    -0.07   0.14  -0.00    -0.00   0.00   0.02
    17   1    -0.00  -0.00  -0.03     0.06   0.15   0.00     0.00   0.00  -0.13
    18   1     0.00  -0.00  -0.41    -0.20   0.14  -0.00    -0.00   0.00   0.04
    19   1     0.00  -0.00  -0.30    -0.30  -0.04  -0.00    -0.00  -0.00   0.24
    20   1     0.00   0.00   0.14    -0.19  -0.22  -0.00    -0.00  -0.00   0.25
    21   1     0.00   0.00   0.45     0.02  -0.22  -0.00     0.00  -0.00   0.04
    22   1     0.00   0.00   0.33     0.12  -0.03   0.00     0.00  -0.00  -0.16
    23   1     0.00   0.00   0.05    -0.03  -0.21  -0.00    -0.00  -0.00   0.45
    24   1    -0.00   0.00   0.25     0.18  -0.23  -0.00     0.00  -0.00   0.15
    25   1    -0.00   0.00   0.22     0.30  -0.05   0.00     0.00  -0.00  -0.33
    26   1    -0.00  -0.00   0.02     0.20   0.14   0.00     0.00   0.00  -0.44
                      4                      5                      6
                      A                      A                      A
 Frequencies --    120.9736               177.9457               221.9542
 Red. masses --      4.7705                 4.8151                 4.5445
 Frc consts  --      0.0411                 0.0898                 0.1319
 IR Inten    --      0.0870                 6.7606                 0.0238
  Atom  AN      X      Y      Z        X      Y      Z        X      Y      Z
     1   6    -0.00  -0.00  -0.20     0.06  -0.17   0.00    -0.00  -0.00  -0.05
     2   6    -0.00  -0.00  -0.16     0.04  -0.15   0.00     0.00   0.00   0.23
     3   7     0.00   0.00   0.00     0.11  -0.01  -0.00     0.00   0.00   0.17
     4   6     0.00   0.00   0.18     0.04   0.14  -0.00     0.00   0.00   0.14
     5   6     0.00   0.00   0.20     0.06   0.19  -0.00    -0.00  -0.00  -0.10
     6   6     0.00   0.00   0.18    -0.07   0.18  -0.00    -0.00  -0.00  -0.18
     7   6    -0.00  -0.00  -0.02    -0.16   0.05  -0.00     0.00  -0.00  -0.00
     8   6    -0.00  -0.00  -0.18    -0.08  -0.07   0.00     0.00   0.00   0.17
     9   6     0.00  -0.00  -0.09     0.06  -0.06   0.00    -0.00  -0.00  -0.01
    10   6     0.00   0.00   0.12     0.13   0.08  -0.00    -0.00  -0.00  -0.18
    11   7    -0.00  -0.00  -0.14     0.12  -0.08   0.00    -0.00  -0.00  -0.18
    12   6    -0.00   0.00   0.07     0.05   0.05  -0.00    -0.00  -0.00  -0.06
    13   6    -0.00   0.00   0.22    -0.09   0.07  -0.00     0.00   0.00   0.18
    14   6    -0.00   0.00   0.03    -0.16  -0.04   0.00     0.00   0.00   0.01
    15   6    -0.00  -0.00  -0.21    -0.08  -0.17   0.00    -0.00  -0.00  -0.18
    16   1    -0.00  -0.00  -0.15    -0.06  -0.15   0.00     0.00   0.00   0.33
    17   1     0.00   0.00   0.21    -0.07   0.14  -0.00     0.00   0.00   0.24
    18   1     0.00   0.00   0.27    -0.14   0.30  -0.00    -0.00  -0.00  -0.25
    19   1    -0.00  -0.00  -0.06    -0.27   0.05   0.00     0.00   0.00   0.04
    20   1    -0.00  -0.00  -0.37    -0.14  -0.16   0.00     0.00   0.00   0.38
    21   1    -0.00  -0.00  -0.19     0.12  -0.17   0.00    -0.00   0.00   0.01
    22   1     0.00   0.00   0.16     0.25   0.08  -0.00    -0.00  -0.00  -0.27
    23   1    -0.00   0.00   0.14     0.12   0.15  -0.00    -0.00  -0.00  -0.14
    24   1     0.00   0.00   0.43    -0.14   0.16  -0.00     0.00   0.00   0.37
    25   1    -0.00   0.00   0.07    -0.28  -0.04   0.00     0.00   0.00   0.04
    26   1    -0.00  -0.00  -0.34    -0.15  -0.29   0.00    -0.00  -0.00  -0.30
                      7                      8                      9
                      A                      A                      A
 Frequencies --    261.3586               305.6217               328.1027
 Red. masses --      6.8593                 3.5600                 2.7564
 Frc consts  --      0.2761                 0.1959                 0.1748
 IR Inten    --      2.2263                 0.9551                 7.9511
  Atom  AN      X      Y      Z        X      Y      Z        X      Y      Z
     1   6     0.14  -0.05   0.00    -0.00  -0.00  -0.06     0.00  -0.00  -0.02
     2   6     0.10  -0.10   0.00    -0.00  -0.00  -0.20    -0.00  -0.00  -0.18
     3   7     0.01  -0.20   0.00    -0.00  -0.00  -0.12     0.00   0.00   0.30
     4   6    -0.08  -0.09   0.00     0.00   0.00   0.31     0.00   0.00   0.01
     5   6    -0.13  -0.05   0.00     0.00   0.00   0.05    -0.00   0.00   0.02
     6   6    -0.16  -0.04   0.00    -0.00  -0.00  -0.11    -0.00  -0.00  -0.05
     7   6    -0.14   0.02   0.00    -0.00   0.00   0.00    -0.00  -0.00  -0.05
     8   6    -0.19   0.11  -0.00     0.00   0.00   0.12    -0.00   0.00   0.04
     9   6    -0.21   0.11  -0.00     0.00  -0.00  -0.07    -0.00   0.00   0.01
    10   6    -0.22   0.06  -0.00     0.00  -0.00  -0.11    -0.00  -0.00  -0.04
    11   7     0.22   0.05  -0.00    -0.00   0.00   0.07     0.00   0.00   0.01
    12   6     0.21   0.10  -0.00    -0.00   0.00   0.06     0.00   0.00   0.07
    13   6     0.17   0.11  -0.00    -0.00  -0.00  -0.10     0.00  -0.00  -0.02
    14   6     0.13   0.02  -0.00     0.00   0.00   0.02     0.00  -0.00  -0.06
    15   6     0.15  -0.05  -0.00     0.00   0.00   0.10     0.00   0.00   0.02
    16   1     0.19  -0.10   0.00     0.00  -0.00  -0.07    -0.00  -0.00  -0.72
    17   1    -0.18  -0.10   0.00     0.00   0.00   0.69    -0.00  -0.00  -0.50
    18   1    -0.16  -0.04   0.00    -0.00  -0.00  -0.20    -0.00  -0.00  -0.12
    19   1    -0.06   0.02   0.00    -0.00   0.00   0.02    -0.00  -0.00  -0.11
    20   1    -0.17   0.15  -0.00     0.00   0.00   0.26     0.00   0.00   0.09
    21   1    -0.22   0.12  -0.00    -0.00  -0.00  -0.16    -0.00   0.00   0.02
    22   1    -0.32   0.05   0.00     0.00  -0.00  -0.22    -0.00  -0.00  -0.07
    23   1     0.23   0.13  -0.00    -0.00   0.00   0.16     0.00   0.00   0.16
    24   1     0.15   0.16  -0.00     0.00  -0.00  -0.17     0.00  -0.00  -0.04
    25   1     0.05   0.02  -0.00     0.00   0.00   0.07    -0.00  -0.00  -0.14
    26   1     0.14  -0.06  -0.00     0.00   0.00   0.22     0.00   0.00   0.01
                     10                     11                     12
                      A                      A                      A
 Frequencies --    380.8606               428.9805               434.6863
 Red. masses --      5.0218                 3.0568                 3.6548
 Frc consts  --      0.4292                 0.3314                 0.4069
 IR Inten    --      2.4646                 0.1152                 3.9329
  Atom  AN      X      Y      Z        X      Y      Z        X      Y      Z
     1   6     0.09  -0.13   0.00     0.00   0.00   0.02    -0.00  -0.00  -0.03
     2   6    -0.05   0.13  -0.00     0.00   0.00   0.01    -0.00  -0.00  -0.05
     3   7     0.02   0.33  -0.00     0.00   0.00   0.01    -0.00   0.00   0.06
     4   6     0.09   0.15  -0.00    -0.00  -0.00  -0.02    -0.00  -0.00  -0.00
     5   6    -0.07  -0.14   0.00    -0.00  -0.00  -0.02     0.00   0.00   0.01
     6   6    -0.01  -0.15   0.00    -0.00  -0.00  -0.20    -0.00  -0.00  -0.08
     7   6     0.07  -0.04   0.00     0.00   0.00   0.21     0.00   0.00   0.06
     8   6     0.02   0.05  -0.00    -0.00  -0.00  -0.02     0.00  -0.00   0.01
     9   6    -0.08   0.05  -0.00    -0.00  -0.00  -0.19    -0.00  -0.00  -0.07
    10   6    -0.13  -0.09   0.00     0.00   0.00   0.21     0.00   0.00   0.07
    11   7     0.12  -0.10   0.00     0.00  -0.00  -0.07    -0.00   0.00   0.26
    12   6     0.07   0.03  -0.00     0.00   0.00   0.04     0.00  -0.00  -0.17
    13   6    -0.04   0.04  -0.00    -0.00   0.00   0.03     0.00  -0.00  -0.06
    14   6    -0.09  -0.03   0.00    -0.00  -0.00  -0.07     0.00   0.00   0.23
    15   6    -0.00  -0.14   0.00     0.00   0.00   0.06    -0.00  -0.00  -0.22
    16   1    -0.34   0.12  -0.00    -0.00  -0.00  -0.05     0.00  -0.00  -0.09
    17   1     0.36   0.14  -0.00     0.00  -0.00  -0.01    -0.00  -0.00  -0.13
    18   1     0.04  -0.24   0.00    -0.00  -0.00  -0.40    -0.00  -0.00  -0.17
    19   1     0.18  -0.04  -0.00     0.00   0.00   0.47     0.00   0.00   0.12
    20   1     0.06   0.12  -0.00    -0.00  -0.00  -0.04     0.00  -0.00   0.01
    21   1    -0.13   0.13  -0.00    -0.00  -0.00  -0.41    -0.00  -0.00  -0.16
    22   1    -0.24  -0.09   0.00     0.00   0.00   0.46     0.00   0.00   0.13
    23   1     0.14   0.13  -0.00     0.00   0.00   0.10    -0.00  -0.00  -0.42
    24   1    -0.08   0.12  -0.00    -0.00   0.00   0.05     0.00  -0.00  -0.14
    25   1    -0.19  -0.03   0.00    -0.00  -0.00  -0.18     0.00   0.00   0.55
    26   1    -0.07  -0.26   0.00     0.00   0.00   0.10    -0.00  -0.00  -0.40
                     13                     14                     15
                      A                      A                      A
 Frequencies --    512.1728               524.0841               538.1397
 Red. masses --      6.5702                 2.6939                 2.4053
 Frc consts  --      1.0155                 0.4360                 0.4104
 IR Inten    --     13.2889                16.6052                 0.0578
  Atom  AN      X      Y      Z        X      Y      Z        X      Y      Z
     1   6     0.07   0.12  -0.00     0.00   0.00   0.16     0.00   0.00   0.17
     2   6     0.24  -0.00   0.00     0.00  -0.00  -0.02     0.00  -0.00  -0.10
     3   7     0.27  -0.01   0.00     0.00  -0.00  -0.08     0.00  -0.00  -0.01
     4   6     0.27  -0.03  -0.00     0.00  -0.00  -0.06     0.00   0.00   0.09
     5   6     0.14  -0.12  -0.00     0.00   0.00   0.22     0.00  -0.00  -0.14
     6   6    -0.11  -0.12   0.00    -0.00  -0.00   0.01    -0.00  -0.00  -0.01
     7   6    -0.11  -0.05   0.00    -0.00  -0.00  -0.09    -0.00   0.00   0.06
     8   6    -0.20   0.12  -0.00    -0.00   0.00   0.15    -0.00  -0.00  -0.10
     9   6    -0.04   0.13  -0.00    -0.00  -0.00  -0.10     0.00   0.00   0.07
    10   6    -0.02   0.08  -0.00     0.00   0.00   0.03    -0.00  -0.00  -0.03
    11   7    -0.09  -0.07   0.00    -0.00  -0.00   0.01    -0.00   0.00   0.04
    12   6    -0.10  -0.12   0.00    -0.00  -0.00  -0.09    -0.00  -0.00  -0.12
    13   6    -0.17  -0.12  -0.00    -0.00   0.00   0.12    -0.00   0.00   0.14
    14   6    -0.08   0.05   0.00    -0.00  -0.00  -0.07    -0.00  -0.00  -0.07
    15   6    -0.09   0.13  -0.00    -0.00   0.00   0.02    -0.00   0.00   0.03
    16   1     0.36   0.01   0.00     0.00  -0.00  -0.09    -0.00  -0.00  -0.32
    17   1     0.35  -0.04  -0.00     0.00  -0.00  -0.15     0.00   0.00   0.28
    18   1    -0.19   0.02   0.00    -0.00  -0.00  -0.29    -0.00   0.00   0.21
    19   1     0.07  -0.05   0.00    -0.00  -0.00  -0.40     0.00   0.00   0.28
    20   1    -0.19   0.14  -0.00    -0.00   0.00   0.12    -0.00  -0.00  -0.08
    21   1     0.01   0.04   0.00    -0.00  -0.00  -0.41     0.00   0.00   0.30
    22   1    -0.23   0.08   0.00    -0.00  -0.00  -0.27    -0.00   0.00   0.16
    23   1    -0.09  -0.09   0.00    -0.00  -0.00  -0.39    -0.00  -0.00  -0.47
    24   1    -0.15  -0.17   0.00    -0.00  -0.00   0.05    -0.00   0.00   0.04
    25   1     0.10   0.05   0.00     0.00  -0.00  -0.34     0.00  -0.00  -0.39
    26   1    -0.14   0.04   0.00    -0.00  -0.00  -0.22    -0.00  -0.00  -0.27
                     16                     17                     18
                      A                      A                      A
 Frequencies --    620.0051               628.7796               647.3923
 Red. masses --      7.0116                 6.4390                 5.8203
 Frc consts  --      1.5880                 1.4999                 1.4372
 IR Inten    --      4.9597                 0.9949                16.1255
  Atom  AN      X      Y      Z        X      Y      Z        X      Y      Z
     1   6    -0.17   0.05  -0.00     0.04  -0.04   0.00     0.07   0.08  -0.00
     2   6    -0.03  -0.14   0.00    -0.01   0.01  -0.00     0.17  -0.09   0.00
     3   7     0.08   0.05  -0.00    -0.03  -0.04   0.00     0.15  -0.08   0.00
     4   6     0.08   0.08  -0.00    -0.03  -0.03   0.00    -0.05   0.25  -0.00
     5   6    -0.00  -0.08   0.00    -0.07  -0.11   0.00    -0.22   0.07  -0.00
     6   6    -0.13  -0.07   0.00    -0.28  -0.05   0.00     0.02   0.08  -0.00
     7   6    -0.04   0.09  -0.00    -0.10   0.32  -0.00     0.09   0.12  -0.00
     8   6    -0.00   0.07  -0.00     0.07   0.10  -0.00     0.20  -0.09   0.00
     9   6     0.12   0.06  -0.00     0.32   0.08  -0.00    -0.14  -0.13   0.00
    10   6     0.03  -0.11   0.00     0.10  -0.28   0.00    -0.17  -0.20   0.00
    11   7    -0.01   0.36  -0.00    -0.01  -0.12   0.00     0.02  -0.01   0.00
    12   6     0.16  -0.00  -0.00    -0.08   0.02  -0.00     0.03  -0.09   0.00
    13   6     0.18  -0.05   0.00    -0.04   0.04  -0.00    -0.09  -0.08   0.00
    14   6    -0.03  -0.35   0.00     0.03   0.14  -0.00    -0.04   0.03  -0.00
    15   6    -0.23  -0.01   0.00     0.11  -0.01  -0.00    -0.07   0.12  -0.00
    16   1    -0.10  -0.14   0.00     0.02   0.01  -0.00     0.33  -0.08   0.00
    17   1     0.15   0.08  -0.00    -0.03  -0.04   0.00    -0.21   0.25  -0.00
    18   1    -0.11  -0.11   0.00    -0.20  -0.19   0.00     0.17  -0.17   0.00
    19   1     0.08   0.10  -0.00     0.05   0.33  -0.00    -0.09   0.12  -0.00
    20   1    -0.07  -0.06   0.00    -0.13  -0.27   0.00     0.23  -0.05  -0.00
    21   1     0.09   0.11  -0.00     0.23   0.22  -0.00    -0.31   0.15  -0.00
    22   1    -0.08  -0.11   0.00    -0.04  -0.28   0.00    -0.03  -0.20   0.00
    23   1    -0.01  -0.27   0.00    -0.03   0.11  -0.00     0.04  -0.07   0.00
    24   1     0.04   0.25  -0.00     0.02  -0.10   0.00    -0.10  -0.06  -0.00
    25   1    -0.00  -0.35   0.00    -0.01   0.14  -0.00     0.14   0.03  -0.00
    26   1    -0.07   0.26  -0.00     0.06  -0.08   0.00    -0.11   0.06  -0.00
                     19                     20                     21
                      A                      A                      A
 Frequencies --    664.9545               715.1871               751.1356
 Red. masses --      6.2770                 1.4937                 1.2830
 Frc consts  --      1.6353                 0.4501                 0.4265
 IR Inten    --      9.6551                32.0914                25.2451
  Atom  AN      X      Y      Z        X      Y      Z        X      Y      Z
     1   6     0.17   0.13  -0.00    -0.00  -0.00  -0.00     0.00   0.00   0.00
     2   6     0.04   0.31  -0.00    -0.00  -0.00  -0.01     0.00   0.00  -0.01
     3   7    -0.17  -0.04   0.00     0.00   0.00   0.00     0.00  -0.00   0.00
     4   6    -0.10  -0.19   0.00     0.00   0.00   0.00    -0.00  -0.00  -0.00
     5   6     0.00   0.01  -0.00    -0.00  -0.00  -0.05    -0.00  -0.00  -0.01
     6   6    -0.01   0.05  -0.00     0.00   0.00   0.05     0.00   0.00   0.01
     7   6    -0.03   0.06  -0.00    -0.00  -0.00  -0.13    -0.00   0.00  -0.01
     8   6     0.01  -0.01  -0.00     0.00   0.00   0.05     0.00   0.00   0.01
     9   6     0.07  -0.00  -0.00    -0.00  -0.00  -0.13    -0.00  -0.00  -0.01
    10   6     0.05   0.01  -0.00     0.00   0.00   0.05    -0.00   0.00   0.01
    11   7     0.18  -0.02  -0.00    -0.00   0.00   0.00     0.00   0.00   0.07
    12   6     0.26  -0.16   0.00    -0.00  -0.00  -0.00    -0.00  -0.00  -0.09
    13   6    -0.13  -0.13   0.00     0.00   0.00   0.01     0.00  -0.00  -0.02
    14   6    -0.15  -0.10   0.00     0.00  -0.00  -0.00    -0.00  -0.00  -0.10
    15   6    -0.18   0.08  -0.00     0.00   0.00   0.01    -0.00   0.00   0.00
    16   1     0.18   0.32  -0.00     0.00   0.00   0.03     0.00  -0.00  -0.07
    17   1    -0.14  -0.19   0.00    -0.00  -0.00  -0.04     0.00   0.00   0.05
    18   1    -0.02   0.07  -0.00     0.00   0.00   0.41     0.00   0.00   0.01
    19   1    -0.07   0.06  -0.00     0.00   0.00   0.17    -0.00  -0.00  -0.03
    20   1    -0.04  -0.08   0.00     0.00   0.00   0.71     0.00  -0.00  -0.02
    21   1     0.08  -0.03   0.00     0.00   0.00   0.19    -0.00  -0.00  -0.03
    22   1     0.08   0.01  -0.00     0.00   0.00   0.47     0.00   0.00   0.01
    23   1     0.31  -0.09   0.00    -0.00  -0.00  -0.01     0.00   0.00   0.12
    24   1    -0.26   0.16  -0.00    -0.00  -0.00  -0.02     0.00   0.00   0.85
    25   1     0.08  -0.11   0.00    -0.00  -0.00  -0.02    -0.00   0.00   0.32
    26   1    -0.28  -0.09   0.00    -0.00  -0.00  -0.01     0.00   0.00   0.37
                     22                     23                     24
                      A                      A                      A
 Frequencies --    761.7509               776.7627               819.0915
 Red. masses --      1.8021                 2.2598                 1.5923
 Frc consts  --      0.6161                 0.8033                 0.6294
 IR Inten    --      9.6805                20.2422                 0.2752
  Atom  AN      X      Y      Z        X      Y      Z        X      Y      Z
     1   6    -0.00  -0.00  -0.06     0.00   0.00   0.19    -0.00  -0.00  -0.12
     2   6     0.00  -0.00  -0.03    -0.00   0.00   0.04     0.00   0.00   0.09
     3   7     0.00  -0.00  -0.01    -0.00  -0.00  -0.04     0.00   0.00   0.02
     4   6     0.00   0.00   0.02    -0.00  -0.00  -0.03    -0.00  -0.00  -0.11
     5   6     0.00   0.00   0.16     0.00   0.00   0.12     0.00   0.00   0.05
     6   6    -0.00  -0.00  -0.07    -0.00  -0.00  -0.04     0.00   0.00  -0.01
     7   6     0.00   0.00   0.04     0.00  -0.00   0.01    -0.00  -0.00  -0.01
     8   6    -0.00  -0.00  -0.13    -0.00  -0.00  -0.09    -0.00  -0.00  -0.05
     9   6    -0.00   0.00   0.03     0.00   0.00   0.01    -0.00   0.00   0.01
    10   6    -0.00  -0.00  -0.08    -0.00  -0.00  -0.03    -0.00   0.00   0.02
    11   7    -0.00   0.00   0.04     0.00  -0.00  -0.10    -0.00   0.00   0.05
    12   6    -0.00  -0.00  -0.04     0.00   0.00   0.06    -0.00  -0.00  -0.02
    13   6     0.00   0.00   0.05    -0.00  -0.00  -0.14     0.00   0.00   0.08
    14   6    -0.00  -0.00  -0.04     0.00   0.00   0.08    -0.00  -0.00  -0.04
    15   6     0.00   0.00   0.03    -0.00  -0.00  -0.07     0.00  -0.00   0.01
    16   1     0.00   0.00   0.44    -0.00  -0.00  -0.52    -0.00  -0.00  -0.50
    17   1    -0.00  -0.00  -0.51     0.00   0.00   0.20     0.00   0.00   0.63
    18   1    -0.00  -0.00  -0.15    -0.00  -0.00  -0.08    -0.00  -0.00  -0.03
    19   1     0.00   0.00   0.32     0.00   0.00   0.24     0.00   0.00   0.15
    20   1     0.00   0.00   0.41     0.00   0.00   0.37     0.00   0.00   0.26
    21   1     0.00   0.00   0.38     0.00   0.00   0.24    -0.00   0.00   0.01
    22   1    -0.00  -0.00  -0.06    -0.00  -0.00  -0.11    -0.00  -0.00  -0.25
    23   1    -0.00  -0.00  -0.09     0.00   0.00   0.27    -0.00  -0.00  -0.11
    24   1     0.00   0.00   0.00     0.00   0.00   0.33    -0.00  -0.00  -0.26
    25   1    -0.00  -0.00  -0.03     0.00   0.00   0.15    -0.00  -0.00  -0.00
    26   1     0.00   0.00   0.15    -0.00  -0.00  -0.31     0.00   0.00   0.27
                     25                     26                     27
                      A                      A                      A
 Frequencies --    845.7781               854.8767               882.6409
 Red. masses --      4.6111                 1.2752                 1.4666
 Frc consts  --      1.9434                 0.5491                 0.6732
 IR Inten    --      2.8365                 0.2668                 0.0274
  Atom  AN      X      Y      Z        X      Y      Z        X      Y      Z
     1   6    -0.01  -0.02  -0.00    -0.00  -0.00  -0.01    -0.00   0.00   0.08
     2   6    -0.10  -0.17   0.00    -0.00   0.00   0.04    -0.00   0.00   0.04
     3   7    -0.04  -0.01   0.00    -0.00  -0.00  -0.02    -0.00  -0.00  -0.06
     4   6    -0.14   0.21  -0.00    -0.00   0.00   0.00     0.00   0.00   0.07
     5   6    -0.04   0.03  -0.00     0.00   0.00   0.02     0.00  -0.00   0.00
     6   6    -0.02  -0.16   0.00     0.00   0.00   0.06    -0.00  -0.00  -0.03
     7   6     0.03  -0.21   0.00     0.00   0.00   0.07    -0.00   0.00  -0.02
     8   6    -0.08   0.06  -0.00    -0.00   0.00   0.01     0.00   0.00   0.02
     9   6     0.15   0.09  -0.00     0.00  -0.00  -0.07    -0.00   0.00   0.02
    10   6     0.08   0.04  -0.00    -0.00  -0.00  -0.09    -0.00  -0.00  -0.00
    11   7     0.08  -0.03   0.00     0.00   0.00   0.00    -0.00  -0.00  -0.03
    12   6     0.14  -0.08   0.00     0.00  -0.00   0.00     0.00   0.00   0.04
    13   6    -0.08  -0.06   0.00    -0.00   0.00   0.02     0.00   0.00   0.06
    14   6     0.02   0.16  -0.00     0.00   0.00  -0.01     0.00  -0.00  -0.05
    15   6    -0.04   0.16  -0.00    -0.00   0.00  -0.01    -0.00  -0.00  -0.11
    16   1    -0.22  -0.18   0.00    -0.00  -0.00  -0.21    -0.00  -0.00  -0.30
    17   1    -0.33   0.22  -0.00    -0.00   0.00   0.04     0.00  -0.00  -0.36
    18   1    -0.02  -0.17   0.00    -0.00  -0.00  -0.44     0.00   0.00   0.20
    19   1     0.30  -0.21   0.00    -0.00  -0.00  -0.45    -0.00   0.00   0.14
    20   1    -0.06   0.09   0.00    -0.00  -0.00  -0.08    -0.00  -0.00  -0.12
    21   1     0.26  -0.07  -0.00     0.00   0.00   0.44    -0.00  -0.00  -0.10
    22   1     0.06   0.05  -0.00     0.00   0.00   0.56    -0.00   0.00   0.02
    23   1     0.19  -0.01  -0.00     0.00  -0.00  -0.02    -0.00  -0.00  -0.12
    24   1    -0.08  -0.03  -0.00    -0.00  -0.00  -0.08    -0.00  -0.00  -0.37
    25   1     0.29   0.15  -0.00     0.00   0.00   0.04     0.00   0.00   0.42
    26   1    -0.04   0.17   0.00     0.00   0.00   0.11     0.00   0.00   0.58
                     28                     29                     30
                      A                      A                      A
 Frequencies --    895.9725               901.5653               913.4023
 Red. masses --      1.7786                 3.4493                 1.7339
 Frc consts  --      0.8412                 1.6519                 0.8523
 IR Inten    --     17.3650                 7.3879                29.5045
  Atom  AN      X      Y      Z        X      Y      Z        X      Y      Z
     1   6     0.00   0.00   0.12     0.06   0.07  -0.00    -0.00  -0.00  -0.03
     2   6     0.00  -0.00  -0.14     0.13   0.17  -0.00     0.00   0.00   0.06
     3   7     0.00   0.00   0.08     0.01  -0.09  -0.00    -0.00  -0.00  -0.05
     4   6    -0.00  -0.00  -0.07    -0.11   0.15  -0.00     0.00   0.00   0.11
     5   6    -0.00  -0.00  -0.05    -0.07   0.05   0.00    -0.00  -0.00  -0.13
     6   6     0.00   0.00   0.06    -0.02  -0.10   0.00     0.00   0.00   0.10
     7   6     0.00  -0.00   0.02     0.02  -0.13   0.00     0.00   0.00   0.03
     8   6    -0.00  -0.00  -0.05    -0.03   0.03   0.00    -0.00  -0.00  -0.08
     9   6     0.00   0.00  -0.01     0.10   0.05  -0.00     0.00   0.00   0.01
    10   6     0.00   0.00   0.04     0.04   0.01  -0.00     0.00   0.00   0.10
    11   7    -0.00  -0.00  -0.04    -0.06   0.02  -0.00    -0.00   0.00   0.01
    12   6    -0.00   0.00   0.04    -0.12   0.06  -0.00    -0.00  -0.00  -0.01
    13   6     0.00   0.00   0.02     0.04   0.04  -0.00    -0.00  -0.00  -0.00
    14   6    -0.00  -0.00  -0.03    -0.02  -0.14   0.00     0.00   0.00   0.01
    15   6     0.00  -0.00  -0.08     0.05  -0.15   0.00     0.00   0.00   0.01
    16   1     0.00   0.00   0.54     0.51   0.19  -0.00    -0.00  -0.00  -0.26
    17   1    -0.00   0.00   0.39    -0.40   0.16  -0.00    -0.00  -0.00  -0.38
    18   1    -0.00  -0.00  -0.31     0.01  -0.16   0.00    -0.00  -0.00  -0.43
    19   1     0.00  -0.00  -0.18     0.20  -0.14   0.00    -0.00  -0.00  -0.28
    20   1     0.00   0.00   0.29    -0.01   0.06  -0.00     0.00   0.00   0.51
    21   1     0.00   0.00   0.04     0.14  -0.03  -0.00    -0.00  -0.00  -0.13
    22   1    -0.00  -0.00  -0.19     0.07   0.01   0.00    -0.00  -0.00  -0.42
    23   1    -0.00  -0.00  -0.10    -0.16   0.01   0.00     0.00   0.00   0.03
    24   1     0.00  -0.00  -0.18     0.04   0.03  -0.00    -0.00   0.00   0.03
    25   1    -0.00   0.00   0.30    -0.28  -0.14   0.00     0.00  -0.00  -0.07
    26   1     0.00   0.00   0.31    -0.00  -0.25   0.00    -0.00  -0.00  -0.05
                     31                     32                     33
                      A                      A                      A
 Frequencies --    983.7737               990.4245               995.2146
 Red. masses --      1.4018                 5.2804                 1.3290
 Frc consts  --      0.7993                 3.0518                 0.7755
 IR Inten    --      0.4720               498.0349                 0.2168
  Atom  AN      X      Y      Z        X      Y      Z        X      Y      Z
     1   6    -0.00   0.00   0.05     0.04   0.01   0.00    -0.00  -0.00  -0.00
     2   6     0.00  -0.00  -0.01    -0.04  -0.01  -0.00     0.00   0.00   0.00
     3   7    -0.00  -0.00   0.00     0.02   0.00  -0.00    -0.00  -0.00  -0.00
     4   6     0.00   0.00  -0.00    -0.03  -0.01   0.00     0.00   0.00   0.01
     5   6    -0.00   0.00  -0.00     0.02  -0.02   0.00    -0.00   0.00  -0.01
     6   6    -0.00  -0.00   0.00     0.18   0.17  -0.00    -0.00  -0.00  -0.04
     7   6     0.00   0.00  -0.00    -0.01  -0.07   0.00    -0.00  -0.00   0.02
     8   6     0.00  -0.00   0.00    -0.16   0.09  -0.00     0.00   0.00   0.04
     9   6    -0.00  -0.00  -0.00     0.06   0.05  -0.00    -0.00  -0.00  -0.13
    10   6     0.00   0.00   0.00    -0.04  -0.24   0.00     0.00   0.00   0.09
    11   7     0.00  -0.00   0.01    -0.03   0.27  -0.00     0.00  -0.00  -0.00
    12   6    -0.00  -0.00  -0.16     0.05  -0.07  -0.00    -0.00   0.00  -0.00
    13   6     0.00   0.00   0.07    -0.19  -0.11   0.00     0.00   0.00   0.00
    14   6     0.00  -0.00   0.03     0.00   0.10  -0.00     0.00  -0.00  -0.00
    15   6    -0.00   0.00  -0.03     0.18  -0.17   0.00    -0.00   0.00   0.00
    16   1     0.00   0.00   0.03    -0.03  -0.01   0.00     0.00  -0.00  -0.01
    17   1    -0.00   0.00   0.01     0.03  -0.01   0.00    -0.00  -0.00  -0.04
    18   1    -0.00  -0.00  -0.00     0.08   0.36  -0.00     0.00   0.00   0.21
    19   1     0.00   0.00   0.00    -0.10  -0.06  -0.00    -0.00  -0.00  -0.10
    20   1     0.00  -0.00  -0.00    -0.17   0.08  -0.00    -0.00  -0.00  -0.26
    21   1     0.00  -0.00   0.00    -0.00   0.13   0.00     0.00   0.00   0.74
    22   1     0.00   0.00   0.00    -0.23  -0.25  -0.00    -0.00  -0.00  -0.54
    23   1     0.00   0.00   0.93    -0.01  -0.15   0.00     0.00   0.00   0.00
    24   1     0.00  -0.00  -0.29    -0.17  -0.17  -0.00     0.00   0.00  -0.00
    25   1     0.00  -0.00  -0.12    -0.02   0.09  -0.00     0.00  -0.00   0.01
    26   1    -0.00   0.00   0.07     0.02  -0.46   0.00    -0.00   0.00  -0.01
                     34                     35                     36
                      A                      A                      A
 Frequencies --    999.7411              1013.8077              1016.3707
 Red. masses --      5.5389                 1.3127                 1.2983
 Frc consts  --      3.2617                 0.7949                 0.7902
 IR Inten    --      8.1079                 0.4263                 0.6094
  Atom  AN      X      Y      Z        X      Y      Z        X      Y      Z
     1   6     0.02  -0.00   0.00    -0.00   0.00   0.00     0.00  -0.00  -0.01
     2   6    -0.02  -0.01  -0.00     0.00  -0.00  -0.00     0.00   0.00   0.01
     3   7    -0.00   0.01  -0.00    -0.00  -0.00  -0.00     0.00  -0.00  -0.00
     4   6     0.01  -0.00   0.00     0.00   0.00   0.01     0.00   0.00   0.00
     5   6     0.01  -0.00   0.00    -0.00  -0.00  -0.02    -0.00  -0.00  -0.01
     6   6    -0.21  -0.18   0.00     0.00   0.00   0.10     0.00   0.00   0.03
     7   6     0.02   0.10  -0.00    -0.00  -0.00  -0.11    -0.00  -0.00  -0.04
     8   6     0.20  -0.10   0.00    -0.00   0.00   0.05    -0.00   0.00   0.01
     9   6    -0.07  -0.07  -0.00    -0.00  -0.00  -0.02    -0.00  -0.00  -0.01
    10   6     0.04   0.28  -0.00     0.00   0.00   0.00     0.00   0.00   0.00
    11   7    -0.02   0.25  -0.00     0.00  -0.00   0.00    -0.00   0.00  -0.01
    12   6     0.05  -0.07  -0.00    -0.00   0.00   0.00     0.00  -0.00  -0.01
    13   6    -0.18  -0.11   0.00     0.00  -0.00  -0.01    -0.00   0.00   0.03
    14   6    -0.00   0.10  -0.00     0.00   0.00   0.04    -0.00  -0.00  -0.12
    15   6     0.17  -0.15   0.00    -0.00  -0.00  -0.03     0.00   0.00   0.09
    16   1    -0.03  -0.01   0.00    -0.00   0.00   0.01    -0.00  -0.00  -0.01
    17   1    -0.02  -0.00  -0.00     0.00  -0.00  -0.02    -0.00  -0.00  -0.00
    18   1    -0.12  -0.35   0.00    -0.00  -0.00  -0.57    -0.00  -0.00  -0.21
    19   1     0.12   0.09  -0.00     0.00   0.00   0.67     0.00   0.00   0.23
    20   1     0.20  -0.10  -0.00    -0.00  -0.00  -0.27    -0.00  -0.00  -0.08
    21   1    -0.01  -0.16   0.00     0.00   0.00   0.15     0.00   0.00   0.04
    22   1     0.23   0.29  -0.00     0.00  -0.00  -0.05     0.00  -0.00  -0.01
    23   1    -0.01  -0.14   0.00    -0.00  -0.00  -0.04     0.00   0.00   0.10
    24   1    -0.15  -0.17   0.00     0.00   0.00   0.07    -0.00  -0.00  -0.20
    25   1    -0.03   0.09  -0.00     0.00  -0.00  -0.25    -0.00   0.00   0.71
    26   1     0.04  -0.38   0.00    -0.00   0.00   0.19     0.00  -0.00  -0.57
                     37                     38                     39
                      A                      A                      A
 Frequencies --   1050.1769              1062.5572              1089.8581
 Red. masses --      2.0056                 1.9879                 1.4294
 Frc consts  --      1.3032                 1.3224                 1.0004
 IR Inten    --     11.8010                 9.3894                22.3938
  Atom  AN      X      Y      Z        X      Y      Z        X      Y      Z
     1   6     0.00  -0.00  -0.00     0.00   0.00   0.00    -0.01   0.00  -0.00
     2   6    -0.00  -0.00   0.00    -0.00   0.01  -0.00    -0.02   0.01  -0.00
     3   7     0.00   0.00  -0.00     0.00  -0.00   0.00    -0.01  -0.01   0.00
     4   6     0.00  -0.01   0.00    -0.00   0.00  -0.00     0.01  -0.00   0.00
     5   6     0.01   0.00  -0.00     0.00   0.00  -0.00     0.05   0.03  -0.00
     6   6    -0.07   0.03   0.00    -0.00  -0.00   0.00    -0.09  -0.01   0.00
     7   6    -0.06  -0.15   0.00     0.01   0.01  -0.00     0.01  -0.04   0.00
     8   6     0.17  -0.08   0.00    -0.01   0.01  -0.00     0.03   0.08  -0.00
     9   6     0.08   0.12  -0.00    -0.01  -0.01   0.00    -0.08  -0.05   0.00
    10   6    -0.06   0.02  -0.00     0.01  -0.01   0.00     0.05  -0.08   0.00
    11   7    -0.00  -0.00  -0.00    -0.05   0.00  -0.00    -0.00  -0.01   0.00
    12   6     0.00  -0.01   0.00     0.06  -0.11   0.00     0.01  -0.01   0.00
    13   6     0.02   0.00  -0.00     0.19   0.03  -0.00    -0.01   0.01  -0.00
    14   6    -0.00   0.01  -0.00    -0.06   0.15  -0.00     0.01  -0.01   0.00
    15   6    -0.01   0.00   0.00    -0.08  -0.01   0.00     0.01  -0.00   0.00
    16   1    -0.00  -0.00   0.00     0.02   0.01  -0.00    -0.01   0.01  -0.00
    17   1     0.01  -0.01   0.00    -0.00   0.00  -0.00    -0.05  -0.00   0.00
    18   1    -0.30   0.42  -0.00    -0.01   0.00  -0.00    -0.34   0.40  -0.00
    19   1    -0.42  -0.16   0.00     0.06   0.01  -0.00     0.28  -0.04  -0.00
    20   1     0.21  -0.05  -0.00    -0.00   0.03  -0.00     0.27   0.51  -0.00
    21   1    -0.13   0.47  -0.00    -0.00  -0.04   0.00    -0.18   0.11  -0.00
    22   1    -0.38   0.02   0.00     0.05  -0.01  -0.00     0.45  -0.08  -0.00
    23   1    -0.01  -0.03   0.00    -0.15  -0.42   0.00     0.01  -0.00   0.00
    24   1     0.03  -0.02   0.00     0.30  -0.16   0.00    -0.06   0.11  -0.00
    25   1    -0.02   0.01   0.00    -0.43   0.18  -0.00     0.03  -0.01   0.00
    26   1    -0.04  -0.05   0.00    -0.37  -0.49   0.00     0.02   0.02  -0.00
                     40                     41                     42
                      A                      A                      A
 Frequencies --   1097.4470              1132.8159              1144.2675
 Red. masses --      1.4715                 1.1087                 1.0758
 Frc consts  --      1.0442                 0.8382                 0.8299
 IR Inten    --      4.9145               176.1446                 2.5698
  Atom  AN      X      Y      Z        X      Y      Z        X      Y      Z
     1   6    -0.06   0.03  -0.00     0.02   0.01  -0.00     0.00  -0.00   0.00
     2   6    -0.00   0.00   0.00    -0.01  -0.01   0.00     0.00  -0.00   0.00
     3   7     0.01  -0.01   0.00     0.01  -0.00   0.00     0.00   0.00  -0.00
     4   6     0.01   0.01  -0.00    -0.01   0.01  -0.00     0.00  -0.00   0.00
     5   6     0.00  -0.00   0.00     0.01  -0.01   0.00    -0.01  -0.00   0.00
     6   6     0.01  -0.00  -0.00     0.00   0.00   0.00    -0.00  -0.00   0.00
     7   6    -0.00   0.00  -0.00     0.01   0.01  -0.00    -0.04  -0.00   0.00
     8   6    -0.00  -0.01   0.00    -0.00  -0.01   0.00     0.02   0.05  -0.00
     9   6     0.01   0.01  -0.00    -0.00  -0.01   0.00     0.02  -0.03   0.00
    10   6    -0.01   0.01  -0.00    -0.01   0.01  -0.00     0.00  -0.01   0.00
    11   7    -0.05  -0.05   0.00    -0.02  -0.01   0.00    -0.00   0.00  -0.00
    12   6     0.07  -0.11   0.00    -0.03   0.01  -0.00    -0.00   0.00  -0.00
    13   6    -0.02   0.08  -0.00     0.01   0.04  -0.00     0.00   0.00  -0.00
    14   6    -0.01   0.01  -0.00     0.06  -0.01  -0.00     0.01   0.00  -0.00
    15   6     0.08  -0.02   0.00    -0.03  -0.01   0.00    -0.00  -0.00   0.00
    16   1     0.11   0.01  -0.00    -0.04  -0.01   0.00    -0.01  -0.00   0.00
    17   1     0.02   0.01  -0.00    -0.01   0.01  -0.00     0.02  -0.00  -0.00
    18   1     0.04  -0.05   0.00    -0.03   0.06  -0.00     0.13  -0.22   0.00
    19   1    -0.05   0.00   0.00     0.09   0.01  -0.00    -0.51  -0.01   0.00
    20   1    -0.03  -0.05   0.00    -0.04  -0.09   0.00     0.32   0.58  -0.00
    21   1     0.01   0.01  -0.00     0.02  -0.03   0.00     0.24  -0.38   0.00
    22   1    -0.06   0.01   0.00    -0.08   0.01   0.00    -0.16  -0.01   0.00
    23   1    -0.05  -0.29   0.00    -0.09  -0.08   0.00    -0.01  -0.01   0.00
    24   1    -0.32   0.74  -0.00    -0.17   0.41  -0.00    -0.01   0.04  -0.00
    25   1    -0.27   0.02  -0.00     0.64  -0.03   0.00     0.07  -0.00   0.00
    26   1     0.24   0.24  -0.00    -0.31  -0.49   0.00    -0.03  -0.05   0.00
                     43                     44                     45
                      A                      A                      A
 Frequencies --   1163.7838              1237.0573              1255.2835
 Red. masses --      1.1318                 1.7080                 1.6898
 Frc consts  --      0.9032                 1.5400                 1.5688
 IR Inten    --    172.0744               581.7593                23.3651
  Atom  AN      X      Y      Z        X      Y      Z        X      Y      Z
     1   6    -0.01  -0.01   0.00     0.04   0.02  -0.00    -0.16   0.05  -0.00
     2   6     0.01  -0.00  -0.00    -0.05   0.06  -0.00    -0.06   0.00   0.00
     3   7    -0.01   0.00  -0.00     0.04  -0.06   0.00    -0.03  -0.01   0.00
     4   6     0.02  -0.02   0.00     0.00   0.06  -0.00     0.02   0.06  -0.00
     5   6    -0.03   0.02  -0.00     0.19  -0.00  -0.00     0.09  -0.02   0.00
     6   6     0.02  -0.02   0.00     0.01  -0.05   0.00     0.01  -0.02   0.00
     7   6    -0.04  -0.03   0.00    -0.03   0.04  -0.00    -0.01   0.03  -0.00
     8   6    -0.02   0.01  -0.00    -0.00   0.01  -0.00    -0.00  -0.00   0.00
     9   6    -0.01   0.05  -0.00    -0.05  -0.03   0.00    -0.03  -0.01   0.00
    10   6     0.05  -0.01   0.00     0.02  -0.03   0.00     0.02  -0.01   0.00
    11   7    -0.00   0.01  -0.00    -0.01  -0.00   0.00     0.02  -0.04   0.00
    12   6    -0.00  -0.00   0.00     0.00   0.01  -0.00     0.06  -0.02   0.00
    13   6     0.00   0.00  -0.00     0.00  -0.00   0.00    -0.01   0.02  -0.00
    14   6     0.01   0.01  -0.00    -0.00  -0.01   0.00     0.04   0.02  -0.00
    15   6    -0.00  -0.00   0.00     0.00   0.01  -0.00    -0.01  -0.06   0.00
    16   1    -0.01  -0.00   0.00    -0.49   0.03   0.00     0.74   0.05  -0.00
    17   1     0.09  -0.02   0.00    -0.62   0.08   0.00     0.03   0.07  -0.00
    18   1     0.24  -0.39   0.00     0.10  -0.19   0.00     0.02  -0.03   0.00
    19   1    -0.38  -0.03   0.00    -0.16   0.05  -0.00    -0.10   0.03  -0.00
    20   1    -0.02   0.00   0.00    -0.02  -0.02   0.00    -0.01  -0.00   0.00
    21   1    -0.27   0.46  -0.00    -0.23   0.24  -0.00    -0.10   0.09  -0.00
    22   1     0.56  -0.00  -0.00    -0.33  -0.05   0.00    -0.16  -0.02   0.00
    23   1    -0.02  -0.03   0.00     0.01   0.02  -0.00     0.34   0.35  -0.00
    24   1    -0.02   0.05  -0.00     0.00   0.00  -0.00     0.08  -0.18   0.00
    25   1     0.12   0.00  -0.00    -0.08  -0.01   0.00     0.08   0.02  -0.00
    26   1    -0.05  -0.08   0.00     0.01   0.02  -0.00    -0.08  -0.17   0.00
                     46                     47                     48
                      A                      A                      A
 Frequencies --   1293.8944              1306.0982              1321.7023
 Red. masses --      1.5488                 1.8833                 2.0206
 Frc consts  --      1.5278                 1.8929                 2.0797
 IR Inten    --    259.7374               265.2944                17.9425
  Atom  AN      X      Y      Z        X      Y      Z        X      Y      Z
     1   6     0.01   0.15  -0.00    -0.07  -0.03   0.00     0.02   0.09  -0.00
     2   6    -0.05  -0.02   0.00    -0.02   0.10  -0.00     0.03  -0.12   0.00
     3   7     0.02  -0.07   0.00     0.00  -0.14   0.00    -0.00   0.14  -0.00
     4   6    -0.01   0.04  -0.00     0.09   0.03  -0.00    -0.02  -0.12   0.00
     5   6    -0.03  -0.05   0.00    -0.03   0.13  -0.00    -0.00   0.11  -0.00
     6   6     0.01   0.00  -0.00    -0.04   0.04  -0.00    -0.04   0.04  -0.00
     7   6     0.02   0.01  -0.00    -0.03  -0.05   0.00    -0.05  -0.04   0.00
     8   6     0.00  -0.00   0.00     0.00  -0.02   0.00    -0.01  -0.02   0.00
     9   6    -0.00   0.02  -0.00     0.03  -0.02   0.00     0.03  -0.04   0.00
    10   6    -0.01   0.02  -0.00    -0.01  -0.02   0.00     0.01  -0.01   0.00
    11   7    -0.01  -0.03   0.00    -0.00   0.00  -0.00    -0.00  -0.01   0.00
    12   6     0.00  -0.02   0.00     0.03  -0.01   0.00    -0.03  -0.02   0.00
    13   6    -0.01  -0.01   0.00    -0.00   0.00  -0.00    -0.01  -0.01   0.00
    14   6     0.05  -0.06   0.00    -0.00   0.03  -0.00     0.04  -0.04   0.00
    15   6     0.04   0.03  -0.00    -0.01  -0.03   0.00     0.03   0.04  -0.00
    16   1    -0.44  -0.05   0.00    -0.32   0.09  -0.00     0.07  -0.11   0.00
    17   1     0.34   0.02  -0.00     0.56  -0.00  -0.00    -0.25  -0.11   0.00
    18   1    -0.06   0.12  -0.00     0.17  -0.32   0.00     0.20  -0.37   0.00
    19   1    -0.14   0.01   0.00     0.44  -0.05  -0.00     0.43  -0.03  -0.00
    20   1    -0.03  -0.05   0.00     0.08   0.12  -0.00     0.11   0.19  -0.00
    21   1     0.08  -0.10   0.00    -0.05   0.11  -0.00    -0.12   0.22  -0.00
    22   1     0.21   0.02  -0.00    -0.31  -0.02   0.00    -0.29  -0.02   0.00
    23   1     0.28   0.38  -0.00     0.07   0.05  -0.00     0.13   0.21  -0.00
    24   1    -0.04   0.05  -0.00     0.03  -0.05   0.00    -0.06   0.09  -0.00
    25   1    -0.42  -0.05   0.00     0.15   0.02  -0.00    -0.31  -0.03   0.00
    26   1    -0.16  -0.33   0.00     0.02   0.04  -0.00    -0.14  -0.26   0.00
                     49                     50                     51
                      A                      A                      A
 Frequencies --   1347.6777              1355.0244              1375.8988
 Red. masses --      3.3704                 2.2797                 3.5777
 Frc consts  --      3.6066                 2.4662                 3.9905
 IR Inten    --     17.7587                70.8015                 7.8019
  Atom  AN      X      Y      Z        X      Y      Z        X      Y      Z
     1   6    -0.04   0.18  -0.00     0.13  -0.02  -0.00     0.09   0.01  -0.00
     2   6    -0.00  -0.04   0.00    -0.04  -0.05   0.00    -0.05  -0.06   0.00
     3   7    -0.03   0.00   0.00    -0.09  -0.03   0.00    -0.08  -0.00   0.00
     4   6    -0.01   0.02  -0.00    -0.07   0.09  -0.00    -0.03   0.03  -0.00
     5   6     0.01  -0.02   0.00     0.06  -0.10   0.00     0.13   0.18  -0.00
     6   6    -0.01   0.01  -0.00    -0.02   0.05  -0.00     0.08  -0.17   0.00
     7   6     0.01   0.01  -0.00     0.04   0.04  -0.00    -0.14  -0.00   0.00
     8   6    -0.01  -0.02   0.00    -0.06  -0.10   0.00     0.10   0.20  -0.00
     9   6    -0.01   0.00  -0.00    -0.04   0.01   0.00     0.04  -0.14   0.00
    10   6     0.03   0.00  -0.00     0.14   0.02  -0.00    -0.16  -0.02   0.00
    11   7     0.25  -0.01   0.00    -0.00   0.01  -0.00     0.04   0.00  -0.00
    12   6    -0.13  -0.11   0.00    -0.03   0.06  -0.00    -0.04   0.04  -0.00
    13   6    -0.11   0.18  -0.00     0.01  -0.05   0.00    -0.01  -0.03   0.00
    14   6     0.11  -0.03   0.00    -0.03  -0.03   0.00    -0.00  -0.03   0.00
    15   6    -0.07  -0.10   0.00     0.03   0.08  -0.00     0.03   0.06  -0.00
    16   1    -0.20  -0.05   0.00     0.30  -0.05  -0.00     0.27  -0.05  -0.00
    17   1     0.09   0.01  -0.00     0.57   0.08  -0.00     0.58   0.02  -0.00
    18   1     0.01  -0.01   0.00     0.05  -0.08   0.00    -0.07   0.08  -0.00
    19   1     0.01   0.01  -0.00     0.05   0.04  -0.00    -0.10  -0.01   0.00
    20   1     0.03   0.06  -0.00     0.14   0.28  -0.00    -0.21  -0.36   0.00
    21   1    -0.04   0.05  -0.00    -0.20   0.25  -0.00    -0.04  -0.01   0.00
    22   1    -0.07   0.00   0.00    -0.34   0.01   0.00     0.05  -0.02   0.00
    23   1    -0.44  -0.59   0.00    -0.23  -0.20   0.00    -0.23  -0.22   0.00
    24   1     0.16  -0.39   0.00    -0.07   0.11  -0.00    -0.06   0.05  -0.00
    25   1    -0.01  -0.03   0.00    -0.15  -0.03   0.00    -0.18  -0.03   0.00
    26   1     0.06   0.12  -0.00    -0.03  -0.03   0.00    -0.05  -0.06   0.00
                     52                     53                     54
                      A                      A                      A
 Frequencies --   1452.9695              1481.2628              1496.8490
 Red. masses --      3.1705                 2.6006                 2.8221
 Frc consts  --      3.9436                 3.3619                 3.7255
 IR Inten    --   2770.0063               389.5091                80.6050
  Atom  AN      X      Y      Z        X      Y      Z        X      Y      Z
     1   6    -0.12  -0.13   0.00    -0.01  -0.05   0.00     0.07   0.05  -0.00
     2   6     0.07   0.04  -0.00     0.16   0.01  -0.00     0.11  -0.06   0.00
     3   7    -0.12  -0.03   0.00    -0.05   0.01  -0.00    -0.09   0.03  -0.00
     4   6     0.17   0.03  -0.00    -0.06   0.02  -0.00    -0.03  -0.02   0.00
     5   6    -0.04   0.05  -0.00    -0.06  -0.03   0.00     0.03   0.12  -0.00
     6   6    -0.03  -0.01   0.00     0.11  -0.10   0.00    -0.10  -0.01   0.00
     7   6     0.07  -0.02   0.00    -0.04   0.08  -0.00     0.16  -0.05   0.00
     8   6     0.00   0.01  -0.00    -0.06   0.00   0.00     0.02   0.09  -0.00
     9   6    -0.07   0.06  -0.00     0.08  -0.13   0.00    -0.13   0.04  -0.00
    10   6     0.06  -0.05   0.00     0.03   0.07  -0.00     0.14  -0.08   0.00
    11   7     0.15   0.05  -0.00     0.01   0.06  -0.00    -0.07   0.02  -0.00
    12   6    -0.11   0.02  -0.00    -0.09  -0.11   0.00    -0.01  -0.08   0.00
    13   6    -0.00  -0.14   0.00     0.05  -0.01   0.00     0.03   0.06  -0.00
    14   6     0.12   0.02  -0.00     0.05   0.06  -0.00    -0.06   0.01  -0.00
    15   6    -0.01   0.11  -0.00    -0.08  -0.06   0.00    -0.01  -0.07   0.00
    16   1     0.01   0.05  -0.00    -0.24  -0.01   0.00    -0.17  -0.07   0.00
    17   1    -0.27   0.03   0.00     0.14   0.01  -0.00     0.24  -0.03  -0.00
    18   1    -0.07   0.06  -0.00    -0.15   0.33  -0.00    -0.09  -0.08   0.00
    19   1    -0.17  -0.03   0.00    -0.04   0.09  -0.00    -0.41  -0.08   0.00
    20   1    -0.09  -0.16   0.00     0.06   0.25  -0.00    -0.24  -0.37   0.00
    21   1     0.08  -0.19   0.00    -0.23   0.38  -0.00    -0.00  -0.22   0.00
    22   1    -0.13  -0.06   0.00    -0.20   0.08  -0.00    -0.34  -0.10   0.00
    23   1    -0.14  -0.01   0.00     0.28   0.40  -0.00     0.22   0.22  -0.00
    24   1    -0.25   0.36  -0.00    -0.05   0.23  -0.00     0.09  -0.04   0.00
    25   1    -0.50   0.05  -0.00    -0.00   0.08  -0.00     0.23   0.00  -0.00
    26   1    -0.25  -0.28   0.00     0.05   0.17  -0.00     0.12   0.14  -0.00
                     55                     56                     57
                      A                      A                      A
 Frequencies --   1510.1501              1553.5242              1601.7228
 Red. masses --      3.0515                 4.5362                 5.6116
 Frc consts  --      4.1001                 6.4502                 8.4822
 IR Inten    --   1455.2803              1097.3411                29.1224
  Atom  AN      X      Y      Z        X      Y      Z        X      Y      Z
     1   6    -0.11   0.06  -0.00    -0.03  -0.06   0.00     0.17   0.19  -0.00
     2   6     0.10  -0.03   0.00    -0.18   0.09  -0.00    -0.27  -0.07   0.00
     3   7    -0.07   0.01   0.00     0.29   0.01  -0.00    -0.05  -0.04   0.00
     4   6     0.10  -0.00  -0.00    -0.14  -0.12   0.00     0.29  -0.01  -0.00
     5   6    -0.12   0.05  -0.00    -0.10   0.10  -0.00    -0.11   0.11  -0.00
     6   6     0.06  -0.10   0.00    -0.08  -0.05   0.00    -0.01  -0.07   0.00
     7   6     0.04   0.05  -0.00     0.21  -0.01  -0.00     0.12   0.04  -0.00
     8   6    -0.06   0.01  -0.00    -0.08   0.07  -0.00    -0.10  -0.07   0.00
     9   6     0.04  -0.08   0.00     0.04  -0.13   0.00     0.08  -0.02   0.00
    10   6     0.07   0.03  -0.00     0.08   0.03  -0.00    -0.07   0.01   0.00
    11   7    -0.04  -0.07   0.00     0.03  -0.01   0.00     0.09   0.01  -0.00
    12   6     0.14   0.11  -0.00     0.02   0.06  -0.00    -0.14  -0.03   0.00
    13   6    -0.06   0.04  -0.00    -0.04  -0.04   0.00     0.15  -0.11   0.00
    14   6    -0.10  -0.08   0.00     0.12   0.01  -0.00    -0.19   0.06  -0.00
    15   6     0.15   0.07  -0.00    -0.06   0.02  -0.00     0.02  -0.10   0.00
    16   1    -0.22  -0.03   0.00     0.21   0.10  -0.00     0.28  -0.05  -0.00
    17   1    -0.14  -0.01   0.00     0.18  -0.12   0.00    -0.33   0.01   0.00
    18   1    -0.18   0.30  -0.00    -0.17   0.06  -0.00    -0.13   0.13  -0.00
    19   1    -0.17   0.05  -0.00    -0.46  -0.02   0.00    -0.17   0.05  -0.00
    20   1    -0.02   0.12  -0.00    -0.16  -0.03   0.00     0.02   0.18  -0.00
    21   1    -0.15   0.22  -0.00    -0.21   0.24  -0.00    -0.00   0.14  -0.00
    22   1    -0.26   0.04   0.00    -0.31   0.04   0.00     0.01   0.02  -0.00
    23   1    -0.20  -0.37   0.00    -0.14  -0.14   0.00     0.03   0.20  -0.00
    24   1     0.11  -0.33   0.00    -0.09   0.04  -0.00    -0.00   0.25  -0.00
    25   1     0.15  -0.11   0.00    -0.26   0.03  -0.00     0.28   0.05  -0.00
    26   1    -0.06  -0.31   0.00    -0.08   0.02  -0.00     0.22   0.21  -0.00
                     58                     59                     60
                      A                      A                      A
 Frequencies --   1614.5489              1638.8447              1690.4067
 Red. masses --      6.1910                 5.9982                 7.1227
 Frc consts  --      9.5085                 9.4917                11.9916
 IR Inten    --     13.8301                14.8808               232.7901
  Atom  AN      X      Y      Z        X      Y      Z        X      Y      Z
     1   6     0.22  -0.23   0.00     0.08  -0.01  -0.00    -0.06  -0.06   0.00
     2   6    -0.11   0.02   0.00    -0.11  -0.00   0.00    -0.13   0.05  -0.00
     3   7    -0.07  -0.03   0.00    -0.01  -0.04   0.00     0.20   0.01  -0.00
     4   6     0.17   0.01  -0.00     0.14   0.04  -0.00    -0.12  -0.07   0.00
     5   6    -0.03   0.08  -0.00    -0.20  -0.25   0.00    -0.12   0.09  -0.00
     6   6     0.00  -0.06   0.00    -0.00   0.20  -0.00     0.19  -0.18   0.00
     7   6     0.07   0.04  -0.00    -0.13  -0.14   0.00    -0.24   0.06  -0.00
     8   6    -0.07  -0.08   0.00     0.15   0.32  -0.00     0.09  -0.07   0.00
     9   6     0.04   0.03  -0.00    -0.03  -0.23   0.00    -0.18   0.19  -0.00
    10   6    -0.06  -0.01   0.00     0.18   0.12  -0.00     0.24  -0.08   0.00
    11   7    -0.15   0.10  -0.00    -0.00   0.03  -0.00     0.13   0.06  -0.00
    12   6     0.02  -0.21   0.00    -0.04  -0.06   0.00    -0.14  -0.16   0.00
    13   6    -0.15   0.33  -0.00     0.00   0.05  -0.00     0.07   0.07  -0.00
    14   6     0.16  -0.15   0.00    -0.03  -0.03   0.00    -0.21  -0.06   0.00
    15   6    -0.03   0.17  -0.00     0.02   0.03  -0.00     0.16   0.15  -0.00
    16   1     0.30   0.03  -0.00     0.15   0.01  -0.00     0.09   0.06  -0.00
    17   1    -0.15   0.02   0.00    -0.31   0.05   0.00     0.09  -0.07   0.00
    18   1    -0.08   0.08  -0.00     0.18  -0.08   0.00    -0.05   0.25  -0.00
    19   1    -0.08   0.05  -0.00     0.14  -0.16   0.00     0.24   0.08  -0.00
    20   1     0.05   0.14  -0.00    -0.22  -0.35   0.00     0.12  -0.05   0.00
    21   1     0.04   0.04  -0.00    -0.25   0.09  -0.00     0.09  -0.25   0.00
    22   1     0.06  -0.01  -0.00    -0.28   0.12  -0.00    -0.24  -0.10   0.00
    23   1     0.29   0.13  -0.00     0.07   0.08  -0.00     0.12   0.17  -0.00
    24   1     0.19  -0.36   0.00     0.05  -0.03   0.00     0.13  -0.01  -0.00
    25   1    -0.20  -0.15   0.00     0.03  -0.03   0.00     0.21  -0.09   0.00
    26   1    -0.19  -0.09   0.00    -0.00  -0.00   0.00    -0.01  -0.18   0.00
                     61                     62                     63
                      A                      A                      A
 Frequencies --   1696.4683              3038.8272              3085.2847
 Red. masses --      6.8389                 1.0836                 1.0851
 Frc consts  --     11.5966                 5.8958                 6.0855
 IR Inten    --    116.9235                71.3906                63.4455
  Atom  AN      X      Y      Z        X      Y      Z        X      Y      Z
     1   6     0.16   0.10  -0.00    -0.00  -0.00   0.00     0.00   0.00  -0.00
     2   6    -0.07  -0.04   0.00     0.00   0.01  -0.00     0.00  -0.08   0.00
     3   7    -0.03  -0.00   0.00    -0.00  -0.00   0.00     0.00  -0.00   0.00
     4   6     0.11  -0.01  -0.00     0.00  -0.08   0.00    -0.00  -0.00   0.00
     5   6    -0.16   0.08  -0.00    -0.00   0.00   0.00     0.00   0.00  -0.00
     6   6     0.16  -0.14   0.00    -0.00   0.00  -0.00     0.00   0.00  -0.00
     7   6    -0.19   0.04  -0.00    -0.00  -0.00   0.00    -0.00  -0.00   0.00
     8   6     0.07  -0.04   0.00     0.00   0.00  -0.00     0.00  -0.00  -0.00
     9   6    -0.13   0.13  -0.00     0.00   0.00  -0.00     0.00   0.00  -0.00
    10   6     0.20  -0.05   0.00    -0.00   0.00  -0.00    -0.00   0.00  -0.00
    11   7    -0.16  -0.06   0.00     0.00  -0.00   0.00    -0.00   0.00   0.00
    12   6     0.16   0.18  -0.00    -0.00   0.00  -0.00    -0.00   0.00  -0.00
    13   6    -0.08  -0.08   0.00    -0.00   0.00  -0.00    -0.00   0.00  -0.00
    14   6     0.27   0.08  -0.00     0.00  -0.00  -0.00     0.00  -0.00   0.00
    15   6    -0.22  -0.20   0.00    -0.00   0.00  -0.00     0.00   0.00  -0.00
    16   1     0.07  -0.04   0.00    -0.01  -0.05   0.00    -0.05   0.99  -0.00
    17   1    -0.09  -0.01   0.00     0.03   0.99  -0.00     0.01   0.06  -0.00
    18   1    -0.05   0.23  -0.00     0.00   0.00  -0.00    -0.00  -0.00   0.00
    19   1     0.20   0.06  -0.00     0.00   0.00  -0.00     0.00   0.00  -0.00
    20   1     0.08  -0.04   0.00    -0.00   0.00  -0.00    -0.00   0.00  -0.00
    21   1     0.05  -0.19   0.00    -0.00  -0.00   0.00    -0.00  -0.00   0.00
    22   1    -0.22  -0.07   0.00     0.00  -0.02   0.00     0.00  -0.00   0.00
    23   1    -0.15  -0.19   0.00     0.00  -0.00   0.00     0.00  -0.00   0.00
    24   1    -0.15   0.02  -0.00     0.00   0.00  -0.00     0.00   0.00  -0.00
    25   1    -0.28   0.11  -0.00     0.00   0.00  -0.00    -0.00   0.00  -0.00
    26   1     0.03   0.29  -0.00     0.00  -0.00  -0.00    -0.00   0.00  -0.00
                     64                     65                     66
                      A                      A                      A
 Frequencies --   3122.0882              3173.7131              3179.4343
 Red. masses --      1.0895                 1.0845                 1.0895
 Frc consts  --      6.2568                 6.4362                 6.4891
 IR Inten    --    151.1335                32.2752                31.8546
  Atom  AN      X      Y      Z        X      Y      Z        X      Y      Z
     1   6     0.00   0.00  -0.00     0.00   0.00  -0.00     0.00   0.00  -0.00
     2   6    -0.00   0.00  -0.00    -0.00   0.00  -0.00    -0.00   0.00  -0.00
     3   7     0.00  -0.00  -0.00     0.00  -0.00  -0.00     0.00  -0.00  -0.00
     4   6    -0.00   0.00  -0.00    -0.00   0.00  -0.00    -0.00  -0.00   0.00
     5   6     0.00  -0.00   0.00    -0.00  -0.00   0.00     0.00  -0.00   0.00
     6   6    -0.00   0.00  -0.00    -0.00  -0.00   0.00    -0.00  -0.00   0.00
     7   6     0.00   0.00  -0.00    -0.00   0.03  -0.00    -0.00   0.00  -0.00
     8   6    -0.00   0.00   0.00     0.02  -0.01   0.00     0.00  -0.00   0.00
     9   6    -0.00  -0.00   0.00    -0.05  -0.03   0.00     0.00   0.00  -0.00
    10   6    -0.00  -0.00   0.00     0.00   0.05  -0.00    -0.00  -0.00   0.00
    11   7    -0.00  -0.00   0.00    -0.00   0.00  -0.00    -0.00   0.00  -0.00
    12   6    -0.07   0.05  -0.00     0.00  -0.00   0.00     0.00  -0.00   0.00
    13   6     0.01   0.00  -0.00     0.00   0.00  -0.00     0.01   0.01  -0.00
    14   6     0.00  -0.00   0.00    -0.00  -0.00   0.00    -0.00  -0.08   0.00
    15   6    -0.00  -0.00   0.00    -0.00   0.00  -0.00    -0.01   0.01  -0.00
    16   1     0.00  -0.01   0.00     0.00  -0.00   0.00    -0.00  -0.00   0.00
    17   1    -0.00  -0.00   0.00     0.00  -0.01   0.00    -0.00  -0.00   0.00
    18   1     0.00   0.00  -0.00     0.05   0.03  -0.00     0.00   0.00  -0.00
    19   1     0.00  -0.00   0.00     0.00  -0.31   0.00     0.00  -0.04   0.00
    20   1    -0.00   0.00  -0.00    -0.24   0.13  -0.00    -0.01   0.00  -0.00
    21   1     0.00   0.00  -0.00     0.59   0.37  -0.00    -0.02  -0.01   0.00
    22   1     0.00   0.00  -0.00     0.01  -0.58   0.00    -0.00   0.03  -0.00
    23   1     0.81  -0.58   0.00    -0.00   0.00  -0.00    -0.02   0.02  -0.00
    24   1    -0.10  -0.04   0.00    -0.00  -0.00   0.00    -0.19  -0.09   0.00
    25   1    -0.00   0.01  -0.00     0.00   0.02  -0.00     0.04   0.96  -0.00
    26   1     0.01  -0.00   0.00     0.00  -0.00   0.00     0.11  -0.07   0.00
                     67                     68                     69
                      A                      A                      A
 Frequencies --   3181.6818              3193.0018              3214.3201
 Red. masses --      1.0887                 1.0945                 1.0971
 Frc consts  --      6.4933                 6.5743                 6.6783
 IR Inten    --     13.9860                59.5340                51.3485
  Atom  AN      X      Y      Z        X      Y      Z        X      Y      Z
     1   6    -0.00  -0.00   0.00     0.00   0.00  -0.00     0.00   0.00  -0.00
     2   6     0.00   0.00  -0.00    -0.00  -0.00   0.00    -0.00  -0.00   0.00
     3   7    -0.00  -0.00   0.00    -0.00   0.00  -0.00    -0.00   0.00  -0.00
     4   6     0.00   0.00  -0.00    -0.00  -0.00   0.00    -0.00  -0.00   0.00
     5   6    -0.00  -0.00   0.00     0.00   0.00  -0.00     0.00   0.00  -0.00
     6   6     0.01   0.01  -0.00     0.00   0.00  -0.00    -0.01  -0.01   0.00
     7   6     0.00  -0.08   0.00    -0.00  -0.02   0.00     0.00   0.02  -0.00
     8   6    -0.02   0.01  -0.00     0.02  -0.01   0.00    -0.07   0.04  -0.00
     9   6    -0.02  -0.01   0.00    -0.05  -0.02   0.00    -0.03  -0.02   0.00
    10   6     0.00   0.03  -0.00     0.00  -0.06   0.00     0.00  -0.01   0.00
    11   7     0.00  -0.00  -0.00    -0.00   0.00   0.00    -0.00   0.00   0.00
    12   6    -0.00   0.00  -0.00     0.00  -0.00   0.00     0.00  -0.00   0.00
    13   6     0.00   0.00  -0.00    -0.00  -0.00   0.00    -0.00  -0.00   0.00
    14   6    -0.00  -0.00   0.00     0.00   0.00  -0.00     0.00  -0.00  -0.00
    15   6    -0.00   0.00  -0.00    -0.00  -0.00   0.00     0.00  -0.00   0.00
    16   1     0.00  -0.00   0.00    -0.00   0.00  -0.00    -0.00   0.00  -0.00
    17   1     0.00  -0.01   0.00    -0.00   0.01  -0.00    -0.00   0.00  -0.00
    18   1    -0.13  -0.08   0.00    -0.03  -0.02   0.00     0.15   0.09  -0.00
    19   1    -0.01   0.87  -0.00    -0.00   0.19  -0.00    -0.00  -0.24   0.00
    20   1     0.21  -0.12   0.00    -0.24   0.13  -0.00     0.77  -0.42   0.00
    21   1     0.18   0.12  -0.00     0.50   0.31  -0.00     0.28   0.18  -0.00
    22   1     0.00  -0.32   0.00    -0.01   0.73  -0.00    -0.00   0.13  -0.00
    23   1     0.00  -0.00   0.00    -0.00   0.00  -0.00    -0.00   0.00  -0.00
    24   1    -0.01  -0.01   0.00     0.00   0.00  -0.00     0.00   0.00  -0.00
    25   1     0.00   0.05  -0.00    -0.00  -0.00   0.00    -0.00  -0.00   0.00
    26   1     0.01  -0.00   0.00    -0.00   0.00  -0.00    -0.00   0.00  -0.00
                     70                     71                     72
                      A                      A                      A
 Frequencies --   3222.9023              3228.9499              3242.6146
 Red. masses --      1.0956                 1.0938                 1.0944
 Frc consts  --      6.7050                 6.7192                 6.7795
 IR Inten    --     30.0403                 6.1057                 3.2484
  Atom  AN      X      Y      Z        X      Y      Z        X      Y      Z
     1   6     0.00   0.00  -0.00    -0.00   0.00  -0.00    -0.00  -0.00   0.00
     2   6     0.00   0.00  -0.00     0.00  -0.00   0.00    -0.00   0.00  -0.00
     3   7    -0.00  -0.00   0.00    -0.00   0.00  -0.00    -0.00  -0.00   0.00
     4   6     0.00   0.00  -0.00    -0.00  -0.00   0.00     0.00   0.00  -0.00
     5   6     0.00  -0.00   0.00    -0.00   0.00  -0.00    -0.00   0.00  -0.00
     6   6     0.00   0.00  -0.00    -0.07  -0.04   0.00    -0.00  -0.00   0.00
     7   6    -0.00   0.00  -0.00     0.00  -0.02   0.00     0.00  -0.00   0.00
     8   6     0.00  -0.00   0.00     0.01  -0.00   0.00    -0.00   0.00  -0.00
     9   6     0.00   0.00  -0.00     0.00   0.00  -0.00    -0.00  -0.00   0.00
    10   6    -0.00   0.00  -0.00    -0.00   0.00  -0.00     0.00  -0.00   0.00
    11   7     0.00  -0.00   0.00     0.00  -0.00   0.00     0.00  -0.00   0.00
    12   6    -0.01   0.01  -0.00    -0.00   0.00  -0.00     0.00  -0.00   0.00
    13   6    -0.08  -0.04   0.00    -0.00  -0.00   0.00     0.01   0.00  -0.00
    14   6     0.00  -0.02   0.00    -0.00  -0.00   0.00     0.00   0.01  -0.00
    15   6    -0.01   0.00  -0.00     0.00  -0.00   0.00    -0.08   0.04  -0.00
    16   1     0.00  -0.00   0.00    -0.00   0.00  -0.00     0.00   0.00  -0.00
    17   1    -0.00  -0.00   0.00     0.00  -0.01   0.00    -0.00  -0.00   0.00
    18   1    -0.01  -0.01   0.00     0.83   0.50  -0.00     0.02   0.01  -0.00
    19   1     0.00  -0.00   0.00    -0.01   0.21  -0.00    -0.00   0.00  -0.00
    20   1    -0.00   0.00  -0.00    -0.10   0.05  -0.00     0.00  -0.00   0.00
    21   1    -0.00  -0.00   0.00    -0.04  -0.03   0.00     0.00   0.00  -0.00
    22   1     0.00  -0.00   0.00    -0.00  -0.01   0.00    -0.00   0.00  -0.00
    23   1     0.07  -0.06   0.00     0.00  -0.00   0.00    -0.01   0.01  -0.00
    24   1     0.88   0.41  -0.00     0.01   0.00  -0.00    -0.05  -0.02   0.00
    25   1     0.00   0.20  -0.00     0.00   0.01  -0.00    -0.01  -0.14   0.00
    26   1     0.08  -0.05   0.00    -0.01   0.01  -0.00     0.85  -0.50   0.00

 -------------------
 - Thermochemistry -
 -------------------
 Temperature   298.150 Kelvin.  Pressure   1.00000 Atm.
 Atom     1 has atomic number  6 and mass  12.00000
 Atom     2 has atomic number  6 and mass  12.00000
 Atom     3 has atomic number  7 and mass  14.00307
 Atom     4 has atomic number  6 and mass  12.00000
 Atom     5 has atomic number  6 and mass  12.00000
 Atom     6 has atomic number  6 and mass  12.00000
 Atom     7 has atomic number  6 and mass  12.00000
 Atom     8 has atomic number  6 and mass  12.00000
 Atom     9 has atomic number  6 and mass  12.00000
 Atom    10 has atomic number  6 and mass  12.00000
 Atom    11 has atomic number  7 and mass  14.00307
 Atom    12 has atomic number  6 and mass  12.00000
 Atom    13 has atomic number  6 and mass  12.00000
 Atom    14 has atomic number  6 and mass  12.00000
 Atom    15 has atomic number  6 and mass  12.00000
 Atom    16 has atomic number  1 and mass   1.00783
 Atom    17 has atomic number  1 and mass   1.00783
 Atom    18 has atomic number  1 and mass   1.00783
 Atom    19 has atomic number  1 and mass   1.00783
 Atom    20 has atomic number  1 and mass   1.00783
 Atom    21 has atomic number  1 and mass   1.00783
 Atom    22 has atomic number  1 and mass   1.00783
 Atom    23 has atomic number  1 and mass   1.00783
 Atom    24 has atomic number  1 and mass   1.00783
 Atom    25 has atomic number  1 and mass   1.00783
 Atom    26 has atomic number  1 and mass   1.00783
 Molecular mass:   195.09222 amu.
 Principal axes and moments of inertia in atomic units:
                           1         2         3
     Eigenvalues --   814.720548165.766188980.48672
           X            0.99999   0.00336   0.00003
           Y           -0.00336   0.99999   0.00013
           Z           -0.00003  -0.00013   1.00000
 This molecule is an asymmetric top.
 Rotational symmetry number  1.
 Warning -- assumption of classical behavior for rotation
           may cause significant error
 Rotational temperatures (Kelvin)      0.10631     0.01061     0.00964
 Rotational constants (GHZ):           2.21517     0.22101     0.20096
 Zero-point vibrational energy     543835.6 (Joules/Mol)
                                  129.97982 (Kcal/Mol)
 Warning -- explicit consideration of  16 degrees of freedom as
           vibrations may cause significant error
 Vibrational temperatures:     70.20    76.75    76.91   174.05   256.02
          (Kelvin)            319.34   376.04   439.72   472.07   547.97
                              617.21   625.42   736.90   754.04   774.26
                              892.05   904.67   931.45   956.72  1028.99
                             1080.72  1095.99  1117.59  1178.49  1216.89
                             1229.98  1269.92  1289.10  1297.15  1314.18
                             1415.43  1425.00  1431.89  1438.40  1458.64
                             1462.33  1510.97  1528.78  1568.06  1578.98
                             1629.87  1646.35  1674.43  1779.85  1806.07
                             1861.63  1879.18  1901.63  1939.01  1949.58
                             1979.61  2090.50  2131.21  2153.63  2172.77
                             2235.17  2304.52  2322.98  2357.93  2432.12
                             2440.84  4372.19  4439.04  4491.99  4566.27
                             4574.50  4577.73  4594.02  4624.69  4637.04
                             4645.74  4665.40
 
 Zero-point correction=                           0.207136 (Hartree/Particle)
 Thermal correction to Energy=                    0.218930
 Thermal correction to Enthalpy=                  0.219875
 Thermal correction to Gibbs Free Energy=         0.167811
 Sum of electronic and zero-point Energies=           -610.611962
 Sum of electronic and thermal Energies=              -610.600167
 Sum of electronic and thermal Enthalpies=            -610.599223
 Sum of electronic and thermal Free Energies=         -610.651287
 
                     E (Thermal)             CV                S
                      KCal/Mol        Cal/Mol-Kelvin    Cal/Mol-Kelvin
 Total                  137.381             46.886            109.577
 Electronic               0.000              0.000              0.000
 Translational            0.889              2.981             41.710
 Rotational               0.889              2.981             32.458
 Vibrational            135.603             40.924             35.410
 Vibration     1          0.595              1.978              4.866
 Vibration     2          0.596              1.976              4.689
 Vibration     3          0.596              1.976              4.685
 Vibration     4          0.609              1.932              3.085
 Vibration     5          0.628              1.869              2.350
 Vibration     6          0.648              1.808              1.943
 Vibration     7          0.669              1.743              1.653
 Vibration     8          0.696              1.663              1.386
 Vibration     9          0.711              1.619              1.269
 Vibration    10          0.751              1.511              1.036
 Vibration    11          0.790              1.407              0.862
 Vibration    12          0.795              1.395              0.843
 Vibration    13          0.867              1.223              0.628
 Vibration    14          0.879              1.197              0.601
 Vibration    15          0.893              1.166              0.569
 Vibration    16          0.980              0.990              0.417
                       Q            Log10(Q)             Ln(Q)
 Total Bot       0.649249D-77        -77.187589       -177.730992
 Total V=0       0.122542D+19         18.088285         41.649816
 Vib (Bot)       0.219078D-91        -91.659401       -211.053570
 Vib (Bot)    1  0.423740D+01          0.627099          1.443949
 Vib (Bot)    2  0.387375D+01          0.588132          1.354224
 Vib (Bot)    3  0.386611D+01          0.587274          1.352248
 Vib (Bot)    4  0.168889D+01          0.227601          0.524071
 Vib (Bot)    5  0.112951D+01          0.052891          0.121787
 Vib (Bot)    6  0.890458D+00         -0.050387         -0.116019
 Vib (Bot)    7  0.742663D+00         -0.129208         -0.297513
 Vib (Bot)    8  0.620278D+00         -0.207413         -0.477587
 Vib (Bot)    9  0.570137D+00         -0.244021         -0.561878
 Vib (Bot)   10  0.474443D+00         -0.323816         -0.745615
 Vib (Bot)   11  0.406492D+00         -0.390948         -0.900192
 Vib (Bot)   12  0.399368D+00         -0.398627         -0.917873
 Vib (Bot)   13  0.317410D+00         -0.498379         -1.147560
 Vib (Bot)   14  0.306837D+00         -0.513093         -1.181439
 Vib (Bot)   15  0.294929D+00         -0.530282         -1.221019
 Vib (Bot)   16  0.235869D+00         -0.627330         -1.444481
 Vib (V=0)       0.413498D+04          3.616473          8.327237
 Vib (V=0)    1  0.476679D+01          0.678226          1.561674
 Vib (V=0)    2  0.440589D+01          0.644034          1.482942
 Vib (V=0)    3  0.439830D+01          0.643285          1.481219
 Vib (V=0)    4  0.226135D+01          0.354367          0.815961
 Vib (V=0)    5  0.173523D+01          0.239358          0.551142
 Vib (V=0)    6  0.152123D+01          0.182196          0.419521
 Vib (V=0)    7  0.139529D+01          0.144665          0.333104
 Vib (V=0)    8  0.129671D+01          0.112843          0.259830
 Vib (V=0)    9  0.125832D+01          0.099793          0.229781
 Vib (V=0)   10  0.118927D+01          0.075281          0.173341
 Vib (V=0)   11  0.114439D+01          0.058573          0.134870
 Vib (V=0)   12  0.113992D+01          0.056873          0.130956
 Vib (V=0)   13  0.109224D+01          0.038318          0.088231
 Vib (V=0)   14  0.108664D+01          0.036086          0.083092
 Vib (V=0)   15  0.108050D+01          0.033626          0.077426
 Vib (V=0)   16  0.105284D+01          0.022363          0.051493
 Electronic      0.100000D+01          0.000000          0.000000
 Translational   0.107106D+09          8.029814         18.489330
 Rotational      0.276693D+07          6.441998         14.833249
 ***** Axes restored to original set *****
 -------------------------------------------------------------------
 Center     Atomic                   Forces (Hartrees/Bohr)
 Number     Number              X              Y              Z
 -------------------------------------------------------------------
      1        6          -0.000013435    0.000053117    0.000008044
      2        6          -0.000091064    0.000056126   -0.000002042
      3        7           0.000106969   -0.000038166   -0.000001115
      4        6          -0.000113105    0.000039616    0.000000648
      5        6           0.000084824   -0.000048260    0.000000349
      6        6          -0.000008364    0.000009183   -0.000000232
      7        6           0.000015274    0.000018397   -0.000000218
      8        6          -0.000011628   -0.000006389    0.000000161
      9        6          -0.000012190    0.000005393   -0.000000078
     10        6          -0.000006973   -0.000009935   -0.000000030
     11        7           0.000026578   -0.000025547   -0.000001283
     12        6           0.000011914   -0.000029823   -0.000003171
     13        6          -0.000050497    0.000037986    0.000000865
     14        6           0.000054923    0.000022878    0.000000072
     15        6          -0.000010731   -0.000072246   -0.000002687
     16        1           0.000008627   -0.000019714   -0.000000494
     17        1           0.000015261   -0.000014836    0.000000046
     18        1           0.000011040    0.000012094    0.000000010
     19        1          -0.000001035    0.000007272    0.000000038
     20        1          -0.000009388    0.000010796    0.000000049
     21        1          -0.000005197   -0.000003324    0.000000018
     22        1          -0.000002851   -0.000006085   -0.000000076
     23        1          -0.000004521   -0.000009828    0.000001044
     24        1           0.000019276   -0.000000444   -0.000000074
     25        1           0.000000966   -0.000002480    0.000000168
     26        1          -0.000014673    0.000014220   -0.000000013
 -------------------------------------------------------------------
 Cartesian Forces:  Max     0.000113105 RMS     0.000030010
 FormGI is forming the generalized inverse of G from B-inverse, IUseBI=4.

 GradGradGradGradGradGradGradGradGradGradGradGradGradGradGradGradGradGrad
 Berny optimization.
 Internal  Forces:  Max     0.000076076 RMS     0.000013873
 Search for a local minimum.
 Step number   1 out of a maximum of    2
 All quantities printed in internal units (Hartrees-Bohrs-Radians)
 Second derivative matrix not updated -- analytic derivatives used.
 ITU=  0
     Eigenvalues ---    0.01022   0.01322   0.01476   0.01546   0.01672
     Eigenvalues ---    0.01800   0.01870   0.02054   0.02180   0.02325
     Eigenvalues ---    0.02355   0.02412   0.02465   0.02535   0.02718
     Eigenvalues ---    0.02746   0.02849   0.03016   0.03110   0.03296
     Eigenvalues ---    0.03690   0.04091   0.04276   0.10013   0.10315
     Eigenvalues ---    0.10575   0.10702   0.11132   0.11572   0.11666
     Eigenvalues ---    0.11822   0.12103   0.12426   0.13168   0.17963
     Eigenvalues ---    0.18188   0.18714   0.18909   0.19526   0.19828
     Eigenvalues ---    0.20371   0.21254   0.21714   0.22277   0.22881
     Eigenvalues ---    0.30253   0.31103   0.33011   0.33722   0.34166
     Eigenvalues ---    0.34401   0.35706   0.35760   0.35916   0.35930
     Eigenvalues ---    0.36308   0.36515   0.36729   0.37214   0.38039
     Eigenvalues ---    0.42860   0.43278   0.44638   0.45657   0.47026
     Eigenvalues ---    0.48038   0.48219   0.51292   0.53119   0.53930
     Eigenvalues ---    0.58714   0.66908
 Angle between quadratic step and forces=  28.67 degrees.
 Linear search not attempted -- first point.
 Iteration  1 RMS(Cart)=  0.00017266 RMS(Int)=  0.00000001
 Iteration  2 RMS(Cart)=  0.00000001 RMS(Int)=  0.00000000
 Variable       Old X    -DE/DX   Delta X   Delta X   Delta X     New X
                                 (Linear)    (Quad)   (Total)
    R1        2.69912   0.00002   0.00000   0.00009   0.00009   2.69921
    R2        2.56913   0.00003   0.00000   0.00009   0.00009   2.56923
    R3        2.69940  -0.00003   0.00000  -0.00015  -0.00015   2.69925
    R4        2.49952  -0.00008   0.00000  -0.00022  -0.00022   2.49931
    R5        2.08262   0.00002   0.00000   0.00008   0.00008   2.08270
    R6        2.48078   0.00004   0.00000   0.00014   0.00014   2.48092
    R7        2.72116  -0.00006   0.00000  -0.00024  -0.00024   2.72093
    R8        2.08926   0.00001   0.00000   0.00004   0.00004   2.08930
    R9        2.68118   0.00003   0.00000   0.00010   0.00010   2.68129
   R10        2.67633   0.00003   0.00000   0.00009   0.00009   2.67641
   R11        2.62053   0.00001   0.00000   0.00001   0.00001   2.62053
   R12        2.06132   0.00001   0.00000   0.00004   0.00004   2.06136
   R13        2.64864   0.00002   0.00000   0.00006   0.00006   2.64870
   R14        2.06671   0.00001   0.00000   0.00002   0.00002   2.06672
   R15        2.64088   0.00001   0.00000   0.00002   0.00002   2.64089
   R16        2.06258   0.00001   0.00000   0.00003   0.00003   2.06262
   R17        2.62735   0.00002   0.00000   0.00004   0.00004   2.62738
   R18        2.06660   0.00001   0.00000   0.00002   0.00002   2.06662
   R19        2.06665   0.00001   0.00000   0.00002   0.00002   2.06668
   R20        2.50436  -0.00000   0.00000  -0.00003  -0.00003   2.50433
   R21        2.63565   0.00004   0.00000   0.00011   0.00011   2.63576
   R22        2.07709   0.00000   0.00000  -0.00000  -0.00000   2.07709
   R23        2.65727  -0.00002   0.00000  -0.00011  -0.00011   2.65717
   R24        2.06062   0.00002   0.00000   0.00005   0.00005   2.06067
   R25        2.60346   0.00004   0.00000   0.00013   0.00013   2.60359
   R26        2.06725  -0.00000   0.00000  -0.00001  -0.00001   2.06724
   R27        2.05915   0.00002   0.00000   0.00006   0.00006   2.05921
    A1        2.06194  -0.00001   0.00000  -0.00008  -0.00008   2.06186
    A2        2.12443   0.00001   0.00000   0.00006   0.00006   2.12449
    A3        2.09682   0.00000   0.00000   0.00002   0.00002   2.09684
    A4        2.12838   0.00001   0.00000   0.00008   0.00008   2.12847
    A5        2.03070  -0.00002   0.00000  -0.00017  -0.00017   2.03053
    A6        2.12410   0.00000   0.00000   0.00009   0.00009   2.12419
    A7        2.15294   0.00001   0.00000   0.00004   0.00004   2.15298
    A8        2.13511   0.00001   0.00000   0.00006   0.00006   2.13517
    A9        2.10381  -0.00002   0.00000  -0.00022  -0.00022   2.10359
   A10        2.04427   0.00001   0.00000   0.00016   0.00016   2.04442
   A11        2.13303   0.00000   0.00000   0.00004   0.00004   2.13307
   A12        2.11455   0.00000   0.00000   0.00004   0.00004   2.11458
   A13        2.03561  -0.00001   0.00000  -0.00007  -0.00007   2.03553
   A14        2.11726   0.00000   0.00000   0.00004   0.00004   2.11729
   A15        2.05003   0.00000   0.00000   0.00002   0.00002   2.05006
   A16        2.11589  -0.00001   0.00000  -0.00006  -0.00006   2.11583
   A17        2.11581   0.00000   0.00000   0.00001   0.00001   2.11582
   A18        2.08028   0.00000   0.00000   0.00001   0.00001   2.08029
   A19        2.08710  -0.00000   0.00000  -0.00002  -0.00002   2.08708
   A20        2.06478   0.00000   0.00000  -0.00002  -0.00002   2.06476
   A21        2.10941  -0.00000   0.00000  -0.00001  -0.00001   2.10940
   A22        2.10900   0.00000   0.00000   0.00004   0.00004   2.10903
   A23        2.10939   0.00000   0.00000   0.00002   0.00002   2.10942
   A24        2.09090   0.00000   0.00000   0.00002   0.00002   2.09092
   A25        2.08289  -0.00000   0.00000  -0.00004  -0.00004   2.08285
   A26        2.12352   0.00000   0.00000   0.00003   0.00003   2.12355
   A27        2.06857   0.00000   0.00000   0.00000   0.00000   2.06857
   A28        2.09110  -0.00000   0.00000  -0.00003  -0.00003   2.09107
   A29        2.07181  -0.00000   0.00000  -0.00002  -0.00002   2.07179
   A30        2.18407  -0.00001   0.00000  -0.00003  -0.00003   2.18404
   A31        2.02020  -0.00001   0.00000  -0.00003  -0.00003   2.02017
   A32        2.07891   0.00001   0.00000   0.00006   0.00006   2.07897
   A33        2.03595   0.00001   0.00000   0.00005   0.00005   2.03600
   A34        2.11388  -0.00001   0.00000  -0.00010  -0.00010   2.11377
   A35        2.13336   0.00000   0.00000   0.00005   0.00005   2.13341
   A36        2.08869  -0.00001   0.00000  -0.00006  -0.00006   2.08864
   A37        2.10058   0.00000   0.00000   0.00005   0.00005   2.10063
   A38        2.09391   0.00000   0.00000   0.00001   0.00001   2.09392
   A39        2.08903   0.00001   0.00000   0.00004   0.00004   2.08907
   A40        2.05735   0.00000   0.00000   0.00004   0.00004   2.05739
   A41        2.13680  -0.00001   0.00000  -0.00008  -0.00008   2.13672
    D1        3.14156   0.00000   0.00000   0.00003   0.00003   3.14159
    D2       -0.00003   0.00000   0.00000   0.00003   0.00003  -0.00000
    D3        0.00003  -0.00000   0.00000  -0.00003  -0.00003  -0.00000
    D4       -3.14156  -0.00000   0.00000  -0.00003  -0.00003   3.14159
    D5       -3.14155  -0.00000   0.00000  -0.00004  -0.00004  -3.14159
    D6       -0.00001   0.00000   0.00000   0.00002   0.00002   0.00000
    D7        3.14156   0.00000   0.00000   0.00003   0.00003   3.14159
    D8       -0.00004   0.00000   0.00000   0.00004   0.00004  -0.00000
    D9        0.00002  -0.00000   0.00000  -0.00002  -0.00002  -0.00000
   D10       -3.14158  -0.00000   0.00000  -0.00002  -0.00002   3.14159
   D11        3.14157   0.00000   0.00000   0.00002   0.00002  -3.14159
   D12       -0.00002   0.00000   0.00000   0.00002   0.00002   0.00000
   D13        3.14159   0.00000   0.00000   0.00000   0.00000   3.14159
   D14       -0.00000   0.00000   0.00000   0.00000   0.00000  -0.00000
   D15       -0.00001   0.00000   0.00000   0.00001   0.00001   0.00000
   D16        3.14159   0.00000   0.00000   0.00001   0.00001  -3.14159
   D17        3.14159   0.00000   0.00000   0.00001   0.00001  -3.14159
   D18       -0.00000   0.00000   0.00000   0.00001   0.00001   0.00000
   D19        3.14159   0.00000   0.00000   0.00000   0.00000  -3.14159
   D20       -0.00000  -0.00000   0.00000   0.00000   0.00000   0.00000
   D21       -0.00001   0.00000   0.00000   0.00001   0.00001   0.00000
   D22        3.14159   0.00000   0.00000   0.00000   0.00000  -3.14159
   D23       -3.14159  -0.00000   0.00000  -0.00000  -0.00000   3.14159
   D24        0.00000  -0.00000   0.00000  -0.00000  -0.00000  -0.00000
   D25        0.00001  -0.00000   0.00000  -0.00001  -0.00001  -0.00000
   D26       -3.14159  -0.00000   0.00000  -0.00000  -0.00000  -3.14159
   D27        0.00000   0.00000   0.00000  -0.00000  -0.00000   0.00000
   D28       -3.14159  -0.00000   0.00000  -0.00000  -0.00000  -3.14159
   D29        3.14159   0.00000   0.00000   0.00000   0.00000   3.14159
   D30        0.00000  -0.00000   0.00000  -0.00000  -0.00000  -0.00000
   D31        0.00000  -0.00000   0.00000  -0.00000  -0.00000  -0.00000
   D32       -3.14159  -0.00000   0.00000  -0.00000  -0.00000  -3.14159
   D33       -3.14159  -0.00000   0.00000  -0.00000  -0.00000   3.14159
   D34        0.00000   0.00000   0.00000  -0.00000  -0.00000   0.00000
   D35       -0.00000   0.00000   0.00000   0.00000   0.00000   0.00000
   D36        3.14159   0.00000   0.00000   0.00000   0.00000   3.14159
   D37        3.14159   0.00000   0.00000   0.00000   0.00000   3.14159
   D38       -0.00000   0.00000   0.00000   0.00000   0.00000  -0.00000
   D39       -0.00000   0.00000   0.00000   0.00000   0.00000   0.00000
   D40        3.14159   0.00000   0.00000   0.00000   0.00000   3.14159
   D41        3.14159   0.00000   0.00000   0.00000   0.00000  -3.14159
   D42       -0.00000   0.00000   0.00000   0.00000   0.00000   0.00000
   D43       -0.00001   0.00000   0.00000   0.00001   0.00001  -0.00000
   D44       -3.14157  -0.00000   0.00000  -0.00002  -0.00002   3.14159
   D45        0.00002  -0.00000   0.00000  -0.00002  -0.00002  -0.00000
   D46       -3.14159  -0.00000   0.00000  -0.00001  -0.00001   3.14159
   D47        3.14158   0.00000   0.00000   0.00001   0.00001   3.14159
   D48       -0.00002   0.00000   0.00000   0.00002   0.00002  -0.00000
   D49       -0.00001   0.00000   0.00000   0.00001   0.00001   0.00000
   D50        3.14158   0.00000   0.00000   0.00001   0.00001  -3.14159
   D51       -3.14159  -0.00000   0.00000  -0.00000  -0.00000  -3.14159
   D52        0.00000   0.00000   0.00000  -0.00000  -0.00000   0.00000
   D53       -0.00001   0.00000   0.00000   0.00001   0.00001   0.00000
   D54        3.14159   0.00000   0.00000   0.00001   0.00001  -3.14159
   D55        3.14158   0.00000   0.00000   0.00001   0.00001   3.14159
   D56       -0.00000   0.00000   0.00000   0.00000   0.00000   0.00000
         Item               Value     Threshold  Converged?
 Maximum Force            0.000076     0.000450     YES
 RMS     Force            0.000014     0.000300     YES
 Maximum Displacement     0.000655     0.001800     YES
 RMS     Displacement     0.000173     0.001200     YES
 Predicted change in Energy=-4.535638D-08
 Optimization completed.
    -- Stationary point found.
                           ----------------------------
                           !   Optimized Parameters   !
                           ! (Angstroms and Degrees)  !
 --------------------------                            --------------------------
 ! Name  Definition              Value          Derivative Info.                !
 --------------------------------------------------------------------------------
 ! R1    R(1,2)                  1.4283         -DE/DX =    0.0                 !
 ! R2    R(1,11)                 1.3595         -DE/DX =    0.0                 !
 ! R3    R(1,15)                 1.4285         -DE/DX =    0.0                 !
 ! R4    R(2,3)                  1.3227         -DE/DX =   -0.0001              !
 ! R5    R(2,16)                 1.1021         -DE/DX =    0.0                 !
 ! R6    R(3,4)                  1.3128         -DE/DX =    0.0                 !
 ! R7    R(4,5)                  1.44           -DE/DX =   -0.0001              !
 ! R8    R(4,17)                 1.1056         -DE/DX =    0.0                 !
 ! R9    R(5,6)                  1.4188         -DE/DX =    0.0                 !
 ! R10   R(5,10)                 1.4163         -DE/DX =    0.0                 !
 ! R11   R(6,7)                  1.3867         -DE/DX =    0.0                 !
 ! R12   R(6,18)                 1.0908         -DE/DX =    0.0                 !
 ! R13   R(7,8)                  1.4016         -DE/DX =    0.0                 !
 ! R14   R(7,19)                 1.0937         -DE/DX =    0.0                 !
 ! R15   R(8,9)                  1.3975         -DE/DX =    0.0                 !
 ! R16   R(8,20)                 1.0915         -DE/DX =    0.0                 !
 ! R17   R(9,10)                 1.3903         -DE/DX =    0.0                 !
 ! R18   R(9,21)                 1.0936         -DE/DX =    0.0                 !
 ! R19   R(10,22)                1.0936         -DE/DX =    0.0                 !
 ! R20   R(11,12)                1.3253         -DE/DX =    0.0                 !
 ! R21   R(12,13)                1.3947         -DE/DX =    0.0                 !
 ! R22   R(12,23)                1.0991         -DE/DX =    0.0                 !
 ! R23   R(13,14)                1.4062         -DE/DX =    0.0                 !
 ! R24   R(13,24)                1.0904         -DE/DX =    0.0                 !
 ! R25   R(14,15)                1.3777         -DE/DX =    0.0                 !
 ! R26   R(14,25)                1.0939         -DE/DX =    0.0                 !
 ! R27   R(15,26)                1.0897         -DE/DX =    0.0                 !
 ! A1    A(2,1,11)             118.1404         -DE/DX =    0.0                 !
 ! A2    A(2,1,15)             121.7207         -DE/DX =    0.0                 !
 ! A3    A(11,1,15)            120.1389         -DE/DX =    0.0                 !
 ! A4    A(1,2,3)              121.9475         -DE/DX =    0.0                 !
 ! A5    A(1,2,16)             116.3506         -DE/DX =    0.0                 !
 ! A6    A(3,2,16)             121.7019         -DE/DX =    0.0                 !
 ! A7    A(2,3,4)              123.3543         -DE/DX =    0.0                 !
 ! A8    A(3,4,5)              122.3327         -DE/DX =    0.0                 !
 ! A9    A(3,4,17)             120.5395         -DE/DX =    0.0                 !
 ! A10   A(5,4,17)             117.1278         -DE/DX =    0.0                 !
 ! A11   A(4,5,6)              122.2137         -DE/DX =    0.0                 !
 ! A12   A(4,5,10)             121.1545         -DE/DX =    0.0                 !
 ! A13   A(6,5,10)             116.6318         -DE/DX =    0.0                 !
 ! A14   A(5,6,7)              121.3099         -DE/DX =    0.0                 !
 ! A15   A(5,6,18)             117.4583         -DE/DX =    0.0                 !
 ! A16   A(7,6,18)             121.2318         -DE/DX =    0.0                 !
 ! A17   A(6,7,8)              121.227          -DE/DX =    0.0                 !
 ! A18   A(6,7,19)             119.191          -DE/DX =    0.0                 !
 ! A19   A(8,7,19)             119.5819         -DE/DX =    0.0                 !
 ! A20   A(7,8,9)              118.3032         -DE/DX =    0.0                 !
 ! A21   A(7,8,20)             120.8603         -DE/DX =    0.0                 !
 ! A22   A(9,8,20)             120.8366         -DE/DX =    0.0                 !
 ! A23   A(8,9,10)             120.8594         -DE/DX =    0.0                 !
 ! A24   A(8,9,21)             119.7999         -DE/DX =    0.0                 !
 ! A25   A(10,9,21)            119.3407         -DE/DX =    0.0                 !
 ! A26   A(5,10,9)             121.6689         -DE/DX =    0.0                 !
 ! A27   A(5,10,22)            118.5201         -DE/DX =    0.0                 !
 ! A28   A(9,10,22)            119.8111         -DE/DX =    0.0                 !
 ! A29   A(1,11,12)            118.706          -DE/DX =    0.0                 !
 ! A30   A(11,12,13)           125.1381         -DE/DX =    0.0                 !
 ! A31   A(11,12,23)           115.7491         -DE/DX =    0.0                 !
 ! A32   A(13,12,23)           119.1128         -DE/DX =    0.0                 !
 ! A33   A(12,13,14)           116.6514         -DE/DX =    0.0                 !
 ! A34   A(12,13,24)           121.1164         -DE/DX =    0.0                 !
 ! A35   A(14,13,24)           122.2323         -DE/DX =    0.0                 !
 ! A36   A(13,14,15)           119.6733         -DE/DX =    0.0                 !
 ! A37   A(13,14,25)           120.3544         -DE/DX =    0.0                 !
 ! A38   A(15,14,25)           119.9723         -DE/DX =    0.0                 !
 ! A39   A(1,15,14)            119.6924         -DE/DX =    0.0                 !
 ! A40   A(1,15,26)            117.8777         -DE/DX =    0.0                 !
 ! A41   A(14,15,26)           122.4299         -DE/DX =    0.0                 !
 ! D1    D(11,1,2,3)           179.9983         -DE/DX =    0.0                 !
 ! D2    D(11,1,2,16)           -0.0016         -DE/DX =    0.0                 !
 ! D3    D(15,1,2,3)             0.0016         -DE/DX =    0.0                 !
 ! D4    D(15,1,2,16)          180.0017         -DE/DX =    0.0                 !
 ! D5    D(2,1,11,12)         -179.9976         -DE/DX =    0.0                 !
 ! D6    D(15,1,11,12)          -0.0008         -DE/DX =    0.0                 !
 ! D7    D(2,1,15,14)          179.998          -DE/DX =    0.0                 !
 ! D8    D(2,1,15,26)           -0.0025         -DE/DX =    0.0                 !
 ! D9    D(11,1,15,14)           0.0014         -DE/DX =    0.0                 !
 ! D10   D(11,1,15,26)         180.0009         -DE/DX =    0.0                 !
 ! D11   D(1,2,3,4)           -180.001          -DE/DX =    0.0                 !
 ! D12   D(16,2,3,4)            -0.0011         -DE/DX =    0.0                 !
 ! D13   D(2,3,4,5)            179.9997         -DE/DX =    0.0                 !
 ! D14   D(2,3,4,17)            -0.0003         -DE/DX =    0.0                 !
 ! D15   D(3,4,5,6)             -0.0004         -DE/DX =    0.0                 !
 ! D16   D(3,4,5,10)          -180.0002         -DE/DX =    0.0                 !
 ! D17   D(17,4,5,6)          -180.0004         -DE/DX =    0.0                 !
 ! D18   D(17,4,5,10)           -0.0003         -DE/DX =    0.0                 !
 ! D19   D(4,5,6,7)           -180.0001         -DE/DX =    0.0                 !
 ! D20   D(4,5,6,18)             0.0            -DE/DX =    0.0                 !
 ! D21   D(10,5,6,7)            -0.0003         -DE/DX =    0.0                 !
 ! D22   D(10,5,6,18)         -180.0002         -DE/DX =    0.0                 !
 ! D23   D(4,5,10,9)           180.0002         -DE/DX =    0.0                 !
 ! D24   D(4,5,10,22)            0.0001         -DE/DX =    0.0                 !
 ! D25   D(6,5,10,9)             0.0003         -DE/DX =    0.0                 !
 ! D26   D(6,5,10,22)         -179.9997         -DE/DX =    0.0                 !
 ! D27   D(5,6,7,8)              0.0001         -DE/DX =    0.0                 !
 ! D28   D(5,6,7,19)          -179.9998         -DE/DX =    0.0                 !
 ! D29   D(18,6,7,8)           179.9999         -DE/DX =    0.0                 !
 ! D30   D(18,6,7,19)            0.0            -DE/DX =    0.0                 !
 ! D31   D(6,7,8,9)              0.0002         -DE/DX =    0.0                 !
 ! D32   D(6,7,8,20)          -179.9999         -DE/DX =    0.0                 !
 ! D33   D(19,7,8,9)           180.0001         -DE/DX =    0.0                 !
 ! D34   D(19,7,8,20)            0.0            -DE/DX =    0.0                 !
 ! D35   D(7,8,9,10)            -0.0002         -DE/DX =    0.0                 !
 ! D36   D(7,8,9,21)           179.9998         -DE/DX =    0.0                 !
 ! D37   D(20,8,9,10)          179.9999         -DE/DX =    0.0                 !
 ! D38   D(20,8,9,21)           -0.0001         -DE/DX =    0.0                 !
 ! D39   D(8,9,10,5)            -0.0001         -DE/DX =    0.0                 !
 ! D40   D(8,9,10,22)          180.0            -DE/DX =    0.0                 !
 ! D41   D(21,9,10,5)         -180.0001         -DE/DX =    0.0                 !
 ! D42   D(21,9,10,22)          -0.0001         -DE/DX =    0.0                 !
 ! D43   D(1,11,12,13)          -0.0003         -DE/DX =    0.0                 !
 ! D44   D(1,11,12,23)         180.0011         -DE/DX =    0.0                 !
 ! D45   D(11,12,13,14)          0.0009         -DE/DX =    0.0                 !
 ! D46   D(11,12,13,24)        180.0003         -DE/DX =    0.0                 !
 ! D47   D(23,12,13,14)        179.9994         -DE/DX =    0.0                 !
 ! D48   D(23,12,13,24)         -0.0012         -DE/DX =    0.0                 !
 ! D49   D(12,13,14,15)         -0.0003         -DE/DX =    0.0                 !
 ! D50   D(12,13,14,25)       -180.0005         -DE/DX =    0.0                 !
 ! D51   D(24,13,14,15)       -179.9997         -DE/DX =    0.0                 !
 ! D52   D(24,13,14,25)          0.0001         -DE/DX =    0.0                 !
 ! D53   D(13,14,15,1)          -0.0008         -DE/DX =    0.0                 !
 ! D54   D(13,14,15,26)       -180.0003         -DE/DX =    0.0                 !
 ! D55   D(25,14,15,1)         179.9994         -DE/DX =    0.0                 !
 ! D56   D(25,14,15,26)         -0.0001         -DE/DX =    0.0                 !
 --------------------------------------------------------------------------------
 GradGradGradGradGradGradGradGradGradGradGradGradGradGradGradGradGradGrad


 ----------------------------------------------------------------------

 Electric dipole moment (input orientation):
 (Debye = 10**-18 statcoulomb cm , SI units = C m)
                  (au)            (Debye)         (10**-30 SI)
   Tot        0.934945D+00      0.237639D+01      0.792679D+01
   x         -0.486103D+00     -0.123555D+01     -0.412135D+01
   y          0.798640D+00      0.202994D+01      0.677115D+01
   z         -0.948381D-04     -0.241054D-03     -0.804071D-03

 Dipole polarizability, Alpha (input orientation).
 (esu units = cm**3 , SI units = C**2 m**2 J**-1)
 Alpha(0;0):
               (au)            (10**-24 esu)      (10**-40 SI)
   iso        0.238280D+03      0.353095D+02      0.392871D+02
   aniso      0.379434D+03      0.562263D+02      0.625602D+02
   xx         0.484597D+03      0.718098D+02      0.798992D+02
   yx         0.749676D+01      0.111090D+01      0.123605D+01
   yy         0.164417D+03      0.243641D+02      0.271087D+02
   zx        -0.116289D-01     -0.172323D-02     -0.191735D-02
   zy        -0.135991D-01     -0.201517D-02     -0.224218D-02
   zz         0.658274D+02      0.975461D+01      0.108535D+02

 ----------------------------------------------------------------------

 Dipole orientation:
     6          2.96280635          1.80344561         -3.06869875
     6          0.65800792          0.40024787         -3.00413827
     7         -0.42805390         -0.26093398         -0.85218141
     6         -2.54455142         -1.54944602         -0.73197324
     6         -3.69104537         -2.24743218          1.63511392
     6         -2.60772344         -1.58793819          3.99736569
     6         -3.74239714         -2.27872101          6.25623495
     6         -6.00457130         -3.65589637          6.29173108
     6         -7.10062373         -4.32315261          3.98355864
     6         -5.97617364         -3.63859408          1.70980589
     7          3.95124459          2.40511067         -5.36248066
     6          6.08918193          3.70660985         -5.44709172
     6          7.44634200          4.53287136         -3.34422655
     6          6.44156417          3.92123313         -0.96149088
     6          4.22167911          2.56982361         -0.80713891
     1         -0.16945822         -0.10355598         -4.84771831
     1         -3.52476022         -2.14618697         -2.47785499
     1         -0.84717991         -0.51614452          3.96956882
     1         -2.85042319         -1.73570733          8.03971250
     1         -6.88792187         -4.19367073          8.07631437
     1         -8.86569342         -5.39770439          3.95726932
     1         -6.86198760         -4.17786310         -0.07781393
     1          6.80552052          4.14268407         -7.34735427
     1          9.19695458          5.59858750         -3.55811083
     1          7.41283610          4.51254738          0.76491820
     1          3.36812623          2.05022504          0.99328964

 Electric dipole moment (dipole orientation):
 (Debye = 10**-18 statcoulomb cm , SI units = C m)
                  (au)            (Debye)         (10**-30 SI)
   Tot        0.934945D+00      0.237639D+01      0.792679D+01
   x          0.000000D+00      0.000000D+00      0.000000D+00
   y          0.000000D+00      0.000000D+00      0.000000D+00
   z          0.934945D+00      0.237639D+01      0.792679D+01

 Dipole polarizability, Alpha (dipole orientation).
 (esu units = cm**3 , SI units = C**2 m**2 J**-1)
 Alpha(0;0):
               (au)            (10**-24 esu)      (10**-40 SI)
   iso        0.238280D+03      0.353095D+02      0.392871D+02
   aniso      0.379434D+03      0.562263D+02      0.625602D+02
   xx         0.313070D+03      0.463921D+02      0.516182D+02
   yx         0.150518D+03      0.223045D+02      0.248171D+02
   yy         0.157461D+03      0.233334D+02      0.259619D+02
   zx        -0.118521D+03     -0.175630D+02     -0.195415D+02
   zy        -0.721541D+02     -0.106921D+02     -0.118966D+02
   zz         0.244310D+03      0.362031D+02      0.402813D+02

 ----------------------------------------------------------------------
 Unable to Open any file for archive entry.
 1\1\GINC-NOTCH079\Freq\RM062X\def2SVP\C13H11N2(1-)\U6067110\31-Jan-202
 6\0\\#N Geom=AllCheck Guess=TCheck SCRF=Check GenChk RM062X/def2SVP Fr
 eq\\vsa2_crest_conformers-1\\-1,1\C,2.4121733264,-0.4328341371,0.00012
 24934\C,1.1746812803,-1.1460556694,0.0002776814\N,0.0078548536,-0.5231
 3907,0.0002234741\C,-1.1452858436,-1.150545678,0.000342311\C,-2.403286
 1697,-0.4498516835,0.0002862627\C,-2.4799243128,0.966898888,0.00010728
 12\C,-3.7018931956,1.6224837228,0.0000530718\C,-4.9088144178,0.9098643
 86,0.0001743167\C,-4.8537952099,-0.4865430997,0.0003565669\C,-3.633141
 8444,-1.1521488519,0.0004122774\N,3.5663376254,-1.1513172704,0.0002281
 075\C,4.7210151412,-0.5009231056,0.0001356042\C,4.8606735162,0.8867911
 953,-0.0000711445\C,3.6733819769,1.6402171783,-0.0001689362\C,2.456144
 0733,0.9949487632,-0.0000658295\H,1.2439991258,-2.2459485551,0.0004468
 792\H,-1.1836685293,-2.2554685891,0.0004918947\H,-1.5405864079,1.52141
 96567,0.0000115823\H,-3.7205513998,2.7159782431,-0.0000886156\H,-5.867
 2881303,1.432012485,0.0001287346\H,-5.7806480851,-1.0669706772,0.00045
 66214\H,-3.6100853417,-2.2455323974,0.0005563124\H,5.6229263359,-1.129
 1611909,0.0002082066\H,5.845947328,1.3539917056,-0.0001419722\H,3.7123
 960775,2.7334612307,-0.0003232821\H,1.5090882276,1.5338625207,-0.00012
 98993\\Version=ES64L-G16RevC.01\State=1-A\HF=-610.8190977\RMSD=3.263e-
 09\RMSF=3.001e-05\ZeroPoint=0.207136\Thermal=0.2189304\ETot=-610.60016
 73\HTot=-610.5992231\GTot=-610.6512868\Dipole=-0.4861028,0.7986396,-0.
 0000948\DipoleDeriv=3.6559386,0.5496184,-0.000175,2.0367673,0.2876626,
 -0.0000696,-0.0003781,-0.000029,0.1400787,-4.220433,-0.3372341,0.00015
 04,0.1646419,0.3648167,-0.0001037,0.0001173,-0.0000866,-0.2800458,4.50
 56661,0.0826348,-0.0001359,-0.0249272,-0.7292966,0.0000823,-0.0001281,
 0.0000824,-0.14591,-3.9389818,0.1526962,0.0000794,-0.4866937,0.4506934
 ,-0.0000785,0.0001936,-0.0000997,-0.2407125,3.0716913,-0.3851728,-0.00
 00333,-1.7392775,-0.0498413,0.0000601,0.0001375,0.0000268,0.0451555,-0
 .5963642,0.0259077,0.0000096,1.3090891,-0.2000317,-0.0000314,-0.000156
 1,0.0000014,-0.1704238,0.7294435,0.0570516,-0.0000303,-0.2333463,0.178
 9968,-0.0000339,0.0000064,-0.0000418,-0.1364284,-0.8025323,-0.0617873,
 0.0000245,0.2823796,-0.315599,0.0000033,-0.0000231,0.0000139,-0.223174
 ,0.6614413,-0.1034536,-0.0000082,-0.3034488,0.2653545,-0.0000451,0.000
 0182,-0.0000506,-0.142334,-1.5042928,0.2568475,0.0000021,-0.2122212,0.
 1056856,-0.0000345,0.0000687,-0.0000469,-0.197732,-2.4018107,-0.430495
 5,0.0001209,0.5084203,-0.463133,0.0000054,-0.0000561,0.0000196,-0.3168
 101,1.1828786,0.1979712,-0.0000548,0.0177726,0.6166552,-0.0001005,-0.0
 00022,-0.0000896,-0.0333486,-1.157492,0.0027939,0.0000241,0.2316355,-0
 .4712207,0.0000352,-0.0000065,0.0000374,-0.2340792,1.3476042,0.0264714
 ,-0.0000311,0.0850818,0.2431876,-0.0000544,-0.0000281,-0.000052,-0.124
 8015,-0.8273887,-0.0845901,0.0000272,-1.6524805,-0.3837602,0.0000742,0
 .0002334,0.0000314,-0.1495517,-0.0318409,-0.0226388,0.000008,0.0279926
 ,-0.2226965,0.0000507,-0.0000021,0.000053,0.1170574,-0.0606427,0.01528
 27,0.0000026,-0.0226968,-0.2643762,0.0000503,0.0000026,0.0000499,0.112
 5016,0.0034651,-0.0753612,0.0000121,-0.0416375,0.0375646,0.0000105,0.0
 000092,0.0000111,0.109707,0.0537647,0.0035875,0.0000008,0.0995602,-0.1
 786688,0.0000339,-0.0000114,0.0000371,0.1066228,-0.1595074,0.0926096,-
 0.0000052,0.1144501,-0.0000926,0.000014,-0.0000074,0.0000142,0.1281991
 ,-0.1879511,-0.1062718,0.0000218,-0.1573405,-0.0032995,0.000019,0.0000
 276,0.000017,0.1079513,0.0580719,0.0288517,-0.0000024,-0.036616,-0.145
 717,0.0000348,0.0000072,0.0000331,0.1125295,-0.2843963,0.1212403,-0.00
 00125,0.1954027,-0.0187041,0.0000114,-0.0000174,0.0000076,0.0739663,-0
 .17395,-0.0786679,0.0000141,-0.0977561,0.0248232,0.0000173,0.00001,0.0
 000152,0.1346793,0.069479,-0.0030856,0.0000014,-0.0988742,-0.1772891,0
 .0000417,0.0000092,0.000039,0.101158,0.0081395,0.0751944,-0.0000102,0.
 0341227,0.0482859,0.0000074,-0.0000043,0.000006,0.1057449\Polar=484.59
 6798,7.4967554,164.4172242,-0.0116289,-0.0135991,65.8273632\Quadrupole
 =-21.0317211,12.0717413,8.9599798,4.7664263,0.0001895,-0.0005545\PG=C0
 1 [X(C13H11N2)]\NImag=0\\0.70955083,0.02492051,0.66455304,-0.00001351,
 -0.00006920,0.19432626,-0.20131679,-0.08001922,0.00001749,0.73375397,-
 0.12505719,-0.18467518,0.00002253,-0.02309924,0.68117310,0.00002482,0.
 00002150,-0.06195823,-0.00001670,-0.00008666,0.11373763,-0.10997819,-0
 .02213976,0.00000627,-0.28161846,0.16291960,-0.00001675,0.78117337,-0.
 00218064,0.01846362,-0.00000421,0.13409572,-0.19076441,0.00001555,0.01
 251347,0.40244304,0.00000401,-0.00000392,-0.01319549,-0.00001318,0.000
 01438,-0.05762637,-0.00002038,-0.00004396,0.09487890,0.04862967,0.0301
 9117,-0.00000597,-0.15191003,-0.01137890,0.00000699,-0.30332719,-0.144
 56851,0.00002672,0.73511021,0.00795638,0.00247169,0.00000070,0.0041441
 3,0.00625075,0.00000082,-0.16880644,-0.19730556,0.00002387,0.03745000,
 0.66046425,-0.00000256,0.00000008,0.01010826,0.00000496,0.00000126,0.0
 1239093,0.00002967,0.00002358,-0.05796699,-0.00002315,-0.00007458,0.11
 525201,-0.02646991,-0.01428708,0.00000295,0.04622283,-0.00558876,-0.00
 000042,-0.11149817,0.00220105,0.00000266,-0.19702902,0.10574356,-0.000
 01045,0.68090139,0.01374154,0.00910476,-0.00000158,-0.02695722,0.00034
 373,0.00000234,0.01840710,0.02012102,-0.00000484,0.06676854,-0.1689411
 0,0.00001303,-0.00112024,0.67211509,-0.00000105,-0.00000055,0.00167702
 ,0.00000251,0.00000179,0.01062474,0.00000051,-0.00000487,-0.01172733,-
 0.00000501,0.00001192,-0.05832606,-0.00001349,-0.00006450,0.17347704,0
 .00492792,0.00258598,-0.00000047,-0.00707336,0.00082516,0.00000005,0.0
 0939999,0.00301530,-0.00000057,-0.00652246,0.03657438,-0.00000418,-0.1
 2057088,-0.02726135,0.00000475,0.77284859,-0.00822699,-0.00479236,0.00
 000100,0.01248821,-0.00071650,-0.00000043,-0.02082540,-0.00720893,0.00
 000143,0.03790266,-0.02135902,0.00000286,0.01386099,-0.30213303,0.0000
 2883,0.00250816,0.66719619,0.00000092,0.00000057,0.00018469,-0.0000014
 2,-0.00000007,-0.00091276,0.00000240,0.00000080,-0.00019220,-0.0000043
 7,0.00000306,0.00979028,-0.00000064,0.00002980,-0.07392292,-0.00001642
 ,-0.00006826,0.13633914,-0.00389941,-0.00222651,0.00000042,0.00572021,
 0.00022076,-0.00000019,-0.00842096,-0.00231585,0.00000044,0.01049175,-
 0.00890269,0.00000088,0.02581312,0.08292560,-0.00001129,-0.32772156,0.
 07131822,-0.00000230,0.69732851,0.00201010,0.00124752,-0.00000030,-0.0
 0273552,0.00027636,0.00000008,0.00325987,0.00210716,-0.00000042,-0.009
 37798,-0.00531313,0.00000154,0.03551361,-0.02011028,0.00000249,0.14249
 374,-0.18523633,0.00001223,-0.01282156,0.74395042,-0.00000013,-0.00000
 016,-0.00054054,0.00000012,-0.00000003,0.00015775,-0.00000016,-0.00000
 025,-0.00052993,0.00000097,0.00000148,0.00445705,-0.00000499,0.0000012
 2,0.00604913,-0.00001171,0.00001405,-0.06308511,-0.00001159,-0.0000777
 7,0.14176282,0.00530239,0.00308905,-0.00000059,-0.00775252,0.00016958,
 0.00000023,0.01020888,0.00232379,-0.00000055,-0.01256048,0.00305539,0.
 00000002,-0.00552583,-0.03659543,0.00000460,-0.06140274,0.02666918,-0.
 00000173,-0.28283351,-0.13298133,0.00002179,0.72853884,-0.00351208,-0.
 00204723,0.00000044,0.00549235,-0.00051039,-0.00000014,-0.00678789,0.0
 0090656,0.00000011,0.00906131,0.00409980,-0.00000085,-0.03686696,-0.05
 507477,0.00000693,-0.03087951,0.06149223,-0.00000579,-0.05860556,-0.18
 009425,0.00001595,-0.03745252,0.69034580,0.00000033,0.00000020,0.00002
 217,-0.00000053,0.00000008,0.00008559,0.00000064,-0.00000021,-0.000262
 32,-0.00000092,-0.00000068,-0.00063229,0.00000472,0.00000694,-0.008682
 50,0.00000582,-0.00000720,0.01114615,0.00001213,0.00001784,-0.06431582
 ,-0.00000891,-0.00007384,0.12240644,-0.00480191,-0.00269237,0.00000055
 ,0.00774261,-0.00074848,-0.00000019,-0.01183530,0.00085483,0.00000032,
 0.01290610,-0.00271186,0.00000010,-0.06058074,-0.02233859,0.00000460,-
 0.02022287,0.02100140,-0.00000235,0.03489416,-0.02269469,0.00000239,-0
 .12281789,-0.02933283,0.00000537,0.73571425,0.00270272,0.00164756,-0.0
 0000044,-0.00436890,0.00016829,0.00000010,0.00420142,0.00011086,0.0000
 0005,-0.01017668,-0.00659282,0.00000172,0.02583944,0.06693108,-0.00000
 850,0.03528864,-0.04639716,0.00000435,-0.08306236,-0.03338858,0.000007
 72,0.04513861,-0.34964184,0.00003727,0.02019122,0.70631683,-0.00000022
 ,-0.00000020,-0.00037803,0.00000033,-0.00000008,-0.00050339,-0.0000001
 5,0.00000026,0.00190547,0.00000107,0.00000151,0.00449048,-0.00000154,-
 0.00000740,0.00601300,-0.00000423,0.00000472,-0.00633942,0.00001013,0.
 00000611,0.00947689,-0.00000430,0.00003928,-0.06427751,-0.00001800,-0.
 00007598,0.14033146,0.01115714,0.00664632,-0.00000137,-0.01870284,0.00
 084088,0.00000056,0.02299598,0.00363139,-0.00000110,-0.06151576,-0.016
 21215,0.00000416,-0.24968186,-0.06362554,0.00001318,0.03531199,-0.0544
 7943,0.00000641,-0.06411074,-0.00801547,0.00000243,0.02611696,0.084719
 65,-0.00001144,-0.31771338,0.06852448,-0.00000231,0.69473638,0.0008078
 3,0.00013872,-0.00000010,-0.00140101,0.00086709,-0.00000015,0.00878596
 ,-0.00127085,0.00000053,0.00399124,0.01816215,-0.00000143,-0.10916917,
 -0.18162819,0.00001723,-0.02959426,-0.01733989,0.00000393,0.00901738,-
 0.00267347,-0.00000074,0.02473311,-0.02922803,0.00000469,0.13968064,-0
 .18151076,0.00001200,-0.03572298,0.72970086,-0.00000046,-0.00000025,-0
 .00024494,0.00000076,-0.00000024,-0.00047026,-0.00000169,0.00000073,0.
 00453413,0.00000146,-0.00000090,0.00809670,0.00001901,0.00001622,-0.07
 137404,0.00000314,0.00000443,0.00672776,0.00000031,-0.00000032,-0.0067
 9671,-0.00000364,0.00000316,0.01150741,-0.00001150,0.00001374,-0.06242
 536,-0.00001052,-0.00007812,0.13227462,-0.24043288,0.08535171,-0.00001
 215,-0.08085682,0.02531934,-0.00000224,0.02398871,-0.00427282,-0.00000
 055,-0.02177756,-0.00177520,0.00000118,0.01234840,-0.00708489,0.000000
 59,-0.00258435,0.00401010,-0.00000043,0.00189779,-0.00111733,0.0000000
 7,-0.00277874,0.00171269,-0.00000016,0.00229866,-0.00114633,0.00000008
 ,-0.00550828,-0.00004080,0.00000017,0.70949809,0.09663978,-0.19607562,
 0.00001790,0.00245701,0.01927892,-0.00000233,-0.01147524,0.00110828,0.
 00000086,0.00495881,0.00065864,-0.00000029,-0.00290147,0.00146382,-0.0
 0000012,0.00050440,-0.00095752,0.00000010,-0.00044939,0.00028491,0.,0.
 00065356,-0.00031206,0.00000003,-0.00048249,0.00017708,0.,0.00113138,0
 .00006639,-0.00000005,0.03946385,0.40851709,-0.00001406,0.00001867,-0.
 07250529,0.00000136,-0.00000267,0.00473197,0.00000143,0.00000055,0.004
 38411,-0.00000029,-0.00000004,-0.00009172,0.00000022,-0.00000010,-0.00
 010732,-0.00000005,0.00000007,-0.00001073,0.00000004,-0.00000002,0.000
 07364,-0.00000006,0.00000002,0.00000964,0.00000003,0.00000001,0.000047
 68,-0.00000007,0.,-0.00003925,-0.00000721,-0.00004592,0.09110089,-0.09
 893606,0.02612790,-0.00000269,0.01680843,0.00297460,-0.00000100,-0.013
 47737,-0.00124476,0.00000081,0.00912585,0.00138318,-0.00000055,-0.0055
 1505,0.00285482,-0.00000021,0.00115173,-0.00169516,0.00000018,-0.00080
 255,0.00047020,-0.00000003,0.00118822,-0.00076154,0.00000007,-0.001028
 41,0.00048849,-0.00000003,0.00234580,0.00007614,-0.00000008,-0.3329068
 5,-0.13064252,0.00001827,0.75036023,-0.02316907,0.06483349,-0.00000910
 ,0.00622111,-0.00576937,0.00000185,-0.00019142,-0.00072874,0.00000088,
 0.00080391,0.00031970,-0.00000029,-0.00045112,-0.00002350,-0.00000004,
 0.00028162,0.00015899,-0.00000004,0.00011345,0.00006170,0.,0.00006718,
 -0.00004284,0.,-0.00005746,-0.00021592,0.00000004,0.00002479,-0.000136
 50,0.00000003,-0.10165982,-0.19086779,0.00001744,-0.01947697,0.7203562
 3,0.00000367,-0.00000990,-0.00015846,-0.00000065,0.00000193,0.00636685
 ,0.00000015,0.00000046,0.00281150,-0.00000014,-0.00000014,-0.00075736,
 0.00000008,-0.00000007,-0.00046082,-0.00000005,-0.00000001,-0.00000462
 ,-0.00000001,-0.00000001,0.00002145,-0.00000002,0.,-0.00000379,0.00000
 001,0.00000004,0.00006135,-0.00000001,0.00000003,0.00006509,0.00001428
 ,0.00001808,-0.06644763,-0.00000109,-0.00007910,0.16330153,-0.00162456
 ,0.02968748,-0.00000460,-0.01601717,-0.00316591,0.00000100,0.01335358,
 -0.00243576,0.00000008,-0.01000367,-0.00084625,0.00000042,0.00628623,-
 0.00360149,0.00000031,-0.00122645,0.00224387,-0.00000025,0.00108173,-0
 .00059918,0.00000004,-0.00147686,0.00089109,-0.00000008,0.00119278,-0.
 00069971,0.00000006,-0.00284541,-0.00011715,0.00000010,0.01536213,-0.0
 3365678,0.00000521,-0.12989378,-0.05062628,0.00000784,0.74027995,0.043
 37688,-0.06221675,0.00000675,-0.00468035,0.00523975,-0.00000077,0.0005
 8210,0.00152187,-0.00000058,-0.00080714,-0.00044991,0.00000016,0.00043
 076,-0.00006575,-0.00000001,-0.00017094,-0.00006692,0.00000002,-0.0000
 5891,-0.00002045,0.,-0.00003598,0.00008437,0.,0.00008574,0.00004784,-0
 .00000001,-0.00010837,0.00004901,0.,-0.10713633,-0.03009649,0.00000851
 ,0.02719040,-0.34170000,0.00004083,0.04543755,0.68212365,-0.00000651,0
 .00000713,-0.01125818,0.00000092,-0.00000083,-0.00070239,-0.00000033,-
 0.00000025,-0.00044376,0.00000029,0.00000008,0.00002978,-0.00000017,0.
 00000008,0.00005762,0.00000005,-0.00000003,0.00000343,-0.00000001,0.00
 000001,0.00000130,0.00000003,-0.00000003,0.00000104,-0.00000003,0.,-0.
 00000056,0.00000006,0.,-0.00000425,0.00001541,0.00000801,0.02586018,-0
 .00000357,0.00004170,-0.06814680,-0.00001086,-0.00008349,0.11064039,0.
 02901181,-0.08480635,0.00001207,0.01521764,0.00946312,-0.00000178,-0.0
 1475916,0.00249892,-0.00000014,0.01029575,0.00057634,-0.00000037,-0.00
 641828,0.00361486,-0.00000032,0.00131866,-0.00225616,0.00000026,-0.001
 11675,0.00060279,-0.00000004,0.00150140,-0.00087809,0.00000008,-0.0012
 0225,0.00067018,-0.00000006,0.00286654,0.00010976,-0.00000010,-0.07403
 349,-0.00928638,0.00000124,0.04368926,0.08412265,-0.00001243,-0.271936
 98,0.05971558,-0.00000675,0.70397521,-0.03994956,-0.01704043,0.0000041
 5,0.00848400,-0.00619456,0.00000105,-0.00185592,0.00176040,-0.00000029
 ,0.00183249,0.00044644,-0.00000008,-0.00126382,0.00081815,-0.00000013,
 0.00013138,-0.00057132,0.00000008,-0.00024704,0.00016417,0.,0.00031238
 ,-0.00018682,0.00000002,-0.00023873,0.00018547,-0.00000002,0.00059598,
 0.00005827,-0.00000002,0.01168534,0.00390923,-0.00000174,0.02213574,-0
 .03700328,0.00000609,0.13026678,-0.18500183,0.00001668,0.02958761,0.75
 176986,0.00000511,0.00000385,0.00557794,-0.00000119,0.00000134,0.00390
 989,0.00000041,-0.00000039,-0.00062793,-0.00000038,-0.00000002,0.00023
 716,0.00000024,-0.00000022,-0.00047108,-0.00000004,0.00000011,0.000056
 59,0.00000005,-0.00000002,0.00006035,-0.00000006,0.00000004,0.00000600
 ,0.00000005,-0.00000003,0.00000163,-0.00000012,0.,0.00006228,-0.000001
 05,-0.00000170,-0.00814431,-0.00000364,0.00000609,0.00864738,-0.000016
 58,0.00001706,-0.06049304,-0.00000881,-0.00008687,0.14207816,-0.124780
 36,0.02228696,-0.00000231,-0.00668329,-0.03532398,0.00000521,0.0111154
 7,-0.00317933,0.00000039,-0.00839499,-0.00124316,0.00000037,0.00535173
 ,-0.00284642,0.00000025,-0.00122404,0.00176068,-0.00000020,0.00094788,
 -0.00033478,0.00000001,-0.00113955,0.00078374,-0.00000008,0.00104625,-
 0.00070794,0.00000007,-0.00243969,-0.00015619,0.00000009,0.02921868,0.
 03872986,-0.00000550,-0.02089404,-0.03088710,0.00000455,-0.05858028,0.
 02945620,-0.00000364,-0.35123139,-0.15133095,0.00002412,0.80663265,-0.
 01662533,-0.27626222,0.00002530,-0.03928028,-0.02154505,0.00000568,0.0
 2335743,-0.00735986,0.00000052,-0.01553116,-0.00207479,0.00000066,0.00
 948760,-0.00529970,0.00000044,-0.00177950,0.00342509,-0.00000038,0.001
 56449,-0.00091833,0.00000008,-0.00215128,0.00128193,-0.00000012,0.0017
 4003,-0.00096813,0.00000008,-0.00417731,-0.00021345,0.00000016,0.06913
 202,-0.02042849,0.00000520,-0.02779425,-0.04817396,0.00000617,-0.01949
 335,0.06307646,-0.00000737,-0.08515572,-0.19323503,0.00001928,0.002962
 88,0.65220769,0.00000289,0.00002475,-0.07870761,0.00000635,0.00000612,
 0.01235860,-0.00000354,0.00000107,-0.00010804,0.00000230,0.00000021,-0
 .00099865,-0.00000140,0.00000081,0.00009449,0.00000026,-0.00000051,0.0
 0002198,-0.00000023,0.00000014,0.00007487,0.00000031,-0.00000020,0.000
 00184,-0.00000026,0.00000016,0.00002028,0.00000063,0.00000003,-0.00003
 293,-0.00000971,0.00000551,0.01834630,0.00000362,0.00000556,-0.0073551
 2,0.00000316,-0.00000721,0.00974780,0.00001526,0.00001961,-0.06093714,
 -0.00000829,-0.00007119,0.12996592,0.00216915,-0.02511546,0.00000372,-
 0.05446914,0.00764123,-0.00000022,-0.00982747,0.03238435,-0.00000402,0
 .00624264,0.00637159,-0.00000131,-0.00050596,-0.00065306,0.00000013,-0
 .00003032,0.00016986,-0.00000002,-0.00002695,-0.00017176,0.00000004,-0
 .00005547,-0.00007768,0.00000001,-0.00011515,0.00009357,0.,0.00005296,
 0.00012492,-0.00000002,0.00273951,-0.00033696,-0.00000007,-0.00071735,
 -0.00009658,0.,-0.00005245,0.00060360,-0.00000007,0.00086490,-0.001400
 52,0.00000019,-0.00483663,-0.00050766,0.00000039,0.05818183,0.00485004
 ,-0.01559027,0.00000222,0.00057891,-0.30576724,0.00004352,0.01439630,-
 0.02057849,0.00000522,-0.00572637,0.00266969,-0.00000138,0.00092270,0.
 00022472,-0.00000004,-0.00023250,-0.00008613,0.00000002,-0.00002698,0.
 00019629,0.00000005,0.00010492,0.00011834,-0.00000002,0.00017631,-0.00
 013898,0.00000002,-0.00013901,-0.00026149,0.00000003,0.00208909,0.0019
 0792,-0.00000070,-0.00093360,-0.00049398,-0.00000002,-0.00007697,0.000
 88116,-0.00000007,0.00092078,-0.00082481,0.00000021,-0.00297712,0.0001
 1840,0.00000077,-0.01606296,0.33630509,-0.00000056,0.00000394,0.002261
 78,0.00000036,0.00004301,-0.03202098,-0.00000118,0.00000425,0.01695093
 ,0.00000045,-0.00000151,-0.00684675,-0.00000009,-0.00000002,0.00012395
 ,0.00000002,0.00000001,0.00001716,0.00000003,0.00000003,0.00043360,-0.
 00000003,-0.00000003,-0.00001317,-0.00000003,0.00000005,0.00006233,0.0
 0000002,0.00000003,-0.00005047,-0.00000032,-0.00000066,-0.00271629,0.0
 0000011,-0.00000008,-0.00050708,-0.00000003,-0.00000002,0.00033048,-0.
 00000008,0.00000024,0.00056902,0.00000068,0.00000043,0.00374488,0.0000
 0101,-0.00004925,0.01992628,-0.00028244,0.00076836,-0.00000011,0.00591
 260,-0.00637353,0.00000055,-0.00942556,-0.03419301,0.00000547,-0.05508
 267,0.00074709,0.00000038,0.00050750,0.02466632,-0.00000328,-0.0045404
 4,0.00034484,0.00000017,0.00060886,0.00133646,-0.00000016,0.00001757,-
 0.00031581,0.00000004,-0.00029535,-0.00002274,0.,0.00163131,0.00240625
 ,-0.00000041,-0.00002511,-0.00002365,0.,-0.00012018,-0.00012488,0.0000
 0002,-0.00010213,0.00010437,-0.00000002,0.00003143,0.00018594,0.,-0.00
 005531,-0.00032186,0.00000005,0.00068570,0.00239564,-0.00000044,0.0610
 3500,-0.00083799,0.00022119,0.,0.00650691,0.00277695,-0.00000158,-0.01
 627866,-0.02475435,0.00000653,0.00554807,-0.29386828,0.00003486,-0.003
 46974,-0.01429501,0.00000226,0.00285300,0.00045675,0.00000031,-0.00093
 825,-0.00067150,0.00000016,0.00025210,0.00064528,-0.00000007,0.0007304
 3,-0.00006023,-0.00000009,-0.00195625,0.00025876,-0.00000020,0.0000809
 5,-0.00000774,-0.00000001,-0.00021373,-0.00028794,0.00000006,-0.000138
 56,0.00020571,-0.00000003,0.00008317,0.00020445,0.00000003,0.00021588,
 -0.00017246,0.00000004,-0.00235776,0.00081133,-0.00000025,0.00861162,0
 .32743535,0.00000017,0.00000003,0.00029373,-0.00000123,-0.00000146,-0.
 00744134,0.00000297,0.00000732,0.01871992,-0.00000021,0.00003507,-0.03
 272173,0.00000054,0.00000131,0.00131272,-0.00000016,0.00000038,0.00325
 657,0.00000016,0.00000011,0.00054721,-0.00000006,-0.00000007,0.0001169
 6,-0.00000010,-0.00000005,-0.00048300,0.00000015,-0.00000032,-0.001616
 32,-0.00000002,-0.00000002,-0.00018739,0.00000002,0.00000002,0.0000875
 3,-0.00000002,0.,-0.00001845,0.00000005,0.00000003,0.00041207,-0.00000
 008,0.,0.00003562,0.00000024,-0.00000034,-0.00121721,-0.00000228,-0.00
 004179,0.01934366,0.00024965,0.00011749,-0.00000002,-0.00082378,0.0000
 1621,0.00000002,0.00035766,0.00239119,-0.00000042,-0.00261201,0.000039
 05,-0.00000002,0.00556166,-0.00031766,0.00000003,-0.26914807,-0.129650
 80,0.00002228,-0.01570485,-0.01528158,0.00000249,-0.00205909,0.0042786
 2,-0.00000031,0.00085959,0.00016782,-0.00000006,0.00018604,0.00029805,
 0.00000012,-0.00006877,-0.00003839,0.,0.00005061,0.00005416,0.,0.00003
 294,-0.00003230,0.,0.00001421,-0.00012033,0.00000001,-0.00014093,0.000
 22694,-0.00000004,0.00002461,-0.00010765,0.00000001,0.00010083,-0.0003
 2606,0.00000005,0.28308379,-0.00028305,-0.00011380,0.00000008,0.001977
 09,0.00025738,-0.00000012,-0.00205097,0.00035716,0.00000006,-0.0003183
 9,0.00004509,-0.00000034,-0.02855154,-0.00956925,0.00000267,-0.1284479
 9,-0.13309922,0.00001539,0.01441637,0.01081315,-0.00000130,0.00306413,
 -0.00053123,0.00000096,0.00077792,-0.00081189,0.,0.00194652,-0.0052914
 4,0.00000136,0.00005459,-0.00004947,0.,-0.00004767,-0.00003644,0.,-0.0
 0000430,0.00002631,0.,0.00000842,0.00005582,-0.00000001,0.00003490,-0.
 00011310,0.,-0.00033100,0.00035465,-0.00000007,0.00015867,0.00023529,-
 0.00000006,0.13879490,0.13687244,0.,0.00000005,0.00034361,-0.00000016,
 -0.00000004,-0.00014364,0.00000010,-0.00000015,-0.00047604,0.00000012,
 -0.00000036,-0.00275660,0.00000360,0.00000202,0.00536641,0.00002214,0.
 00001546,-0.03839350,-0.00000136,-0.00000058,0.00344391,-0.00000018,0.
 00000095,0.00756402,-0.00000013,0.00000002,-0.00063326,-0.00000009,0.0
 0000141,0.00583480,0.00000001,0.,-0.00007251,0.,0.,-0.00001974,0.,0.,0
 .00000488,-0.00000001,-0.00000001,-0.00006950,0.,0.,-0.00010280,0.0000
 0003,-0.00000007,-0.00021111,-0.00000003,-0.00000004,-0.00015397,-0.00
 002408,-0.00001785,0.02605115,0.00015521,0.00008242,-0.00000002,-0.000
 13045,-0.00000118,0.,-0.00000005,-0.00025214,0.00000003,0.00093977,0.0
 0092530,-0.00000014,-0.00478764,0.00239427,0.00000002,0.00459234,0.027
 65793,-0.00000358,-0.05860709,0.00374534,0.00000006,0.00604514,-0.0263
 9221,0.00000338,-0.00433910,-0.00252044,0.00000059,-0.00112155,0.00014
 602,0.,-0.00010177,-0.00000208,0.,0.00004751,0.00003715,0.,-0.00003551
 ,-0.00003044,0.,0.00003176,0.00000646,0.,-0.00004180,-0.00005736,0.,0.
 00000992,0.00000069,0.,-0.00035048,0.00027399,-0.00000003,0.00097545,-
 0.00062682,-0.00000006,0.05566598,-0.00089355,-0.00052199,0.00000009,0
 .00112456,-0.00003363,-0.00000003,-0.00113076,0.00006041,0.00000004,0.
 00043082,-0.00049162,0.00000004,0.00234323,0.00118063,0.00000088,-0.00
 314635,-0.01142974,0.00000212,0.00395389,-0.33674523,0.00003907,0.0048
 7597,-0.01168331,0.00000186,-0.00397946,0.00051890,0.00000088,0.000557
 86,0.00105131,-0.00000024,0.00052272,-0.00009417,0.,-0.00022713,-0.000
 06308,0.00000001,0.00025282,0.00003951,-0.00000001,-0.00025409,-0.0000
 5449,0.00000001,0.00018678,0.00038347,-0.00000006,0.00000801,-0.000025
 75,0.,0.00025612,-0.00019328,-0.00000003,0.00009012,0.00086296,-0.0000
 0077,-0.00484366,0.35741381,0.00000011,0.00000006,-0.00001193,-0.00000
 014,0.,0.00002628,0.00000015,0.,0.00011035,-0.00000007,0.00000004,-0.0
 0005333,0.00000004,0.00000090,0.00831340,0.00000046,0.00000130,0.00437
 838,-0.00000001,0.00003911,-0.03860291,-0.00000066,0.00000261,0.003580
 11,0.00000078,0.00000083,0.00650000,-0.00000009,-0.00000022,-0.0006898
 5,-0.00000006,0.00000001,-0.00000225,0.00000003,0.,0.,-0.00000003,0.,-
 0.00000466,0.00000003,0.,-0.00000481,-0.00000002,-0.00000005,-0.000009
 28,0.,0.,0.00002523,-0.00000004,-0.00000003,-0.00037966,-0.00000016,-0
 .00000073,-0.00501887,-0.00000019,-0.00004331,0.02638746,0.00032955,0.
 00020447,-0.00000003,-0.00029603,-0.00000018,0.,0.00021168,0.00012118,
 -0.00000002,-0.00017663,-0.00009248,0.,0.00049397,-0.00098781,0.000000
 10,-0.00269064,-0.00444368,0.00000078,-0.01660916,0.01669916,-0.000001
 74,-0.27737618,0.11986582,-0.00000982,0.00218989,-0.00285634,0.0000003
 5,0.00170351,0.00008198,0.00000009,-0.00022031,0.00005522,0.,0.0000897
 8,0.00001123,0.,-0.00011691,0.00000514,0.,0.00011963,0.00002826,0.,-0.
 00005684,-0.00017380,0.00000002,-0.00002485,0.00004342,0.,-0.00005286,
 0.00008076,0.,-0.00082030,0.00071666,-0.00000006,0.00094879,-0.0002972
 3,-0.00000007,0.29183659,-0.00023637,-0.00013548,0.00000004,0.00031316
 ,-0.00000887,-0.00000002,-0.00026296,0.00013520,0.,0.00023826,0.000213
 01,-0.00000012,-0.00093046,-0.00070841,0.,-0.00267624,-0.00114672,0.00
 000098,-0.01494560,0.01112498,-0.00000093,0.11978214,-0.12263665,0.000
 00929,0.02886056,-0.00788410,0.00000049,-0.00165281,-0.00527395,0.0000
 0156,0.00014248,-0.00002756,0.,-0.00006234,-0.00001686,0.,0.00006587,0
 .00000734,0.,-0.00006906,-0.00000866,0.,0.00005157,0.00009549,-0.00000
 002,-0.00000486,0.00000048,-0.00000002,-0.00003976,0.00006029,0.,-0.00
 061670,0.00034284,0.00000005,0.00079824,0.00072100,-0.00000060,-0.1295
 5366,0.12469678,0.00000002,0.00000003,0.00014098,-0.00000002,-0.000000
 02,-0.00010633,0.00000001,0.,0.00010385,-0.00000002,-0.00000012,-0.000
 63381,0.00000008,0.,-0.00084965,0.00000057,0.00000102,0.00593735,0.000
 00235,-0.00000169,0.00117947,-0.00000978,0.00000929,-0.02899944,-0.000
 00382,0.00000130,0.00123331,0.00000036,0.00000151,0.00625001,0.,0.,-0.
 00002481,0.,0.,-0.00000576,0.,0.,0.00000055,0.,0.,-0.00001154,0.,0.,-0
 .00001197,0.,-0.00000002,-0.00012753,0.00000001,0.,0.00011344,0.000000
 10,0.00000002,0.00061218,-0.00000023,-0.00000059,-0.00384165,0.0000105
 6,-0.00001021,0.02237841,0.00065441,0.00041790,-0.00000007,-0.00086784
 ,-0.00006769,0.00000004,0.00033213,0.00024992,-0.00000005,-0.00085409,
 -0.00152674,0.00000024,-0.00258218,0.00400109,-0.00000027,0.00016390,0
 .00121770,-0.00000018,0.00200213,0.00015775,0.00000010,0.00340309,0.00
 306518,-0.00000040,-0.25798905,-0.12531183,0.00002188,-0.01752435,-0.0
 1821424,0.00000294,-0.00041419,0.00009793,0.,0.00016749,0.00002963,0.,
 -0.00020357,-0.00000352,0.,0.00021029,0.00003557,0.,-0.00013073,-0.000
 29587,0.00000004,-0.00001973,0.00005255,0.,-0.00006399,0.00016235,-0.0
 0000002,-0.00005577,-0.00007371,-0.00000001,0.00001109,0.00011739,0.,0
 .00058522,-0.00054716,-0.00000004,0.27219193,0.00038323,0.00021548,-0.
 00000004,-0.00052837,0.00003701,0.00000001,0.00090958,-0.00000415,-0.0
 0000007,-0.00054651,0.00044240,-0.00000002,0.00359424,-0.00087925,0.00
 000104,0.00086376,-0.00023526,-0.00000009,0.00168698,-0.00584354,0.000
 00162,-0.02827122,-0.00887118,0.00000236,-0.12563075,-0.13728104,0.000
 01649,0.01303015,0.01087978,-0.00000126,-0.00020194,0.00005411,0.,0.00
 008838,0.00000222,0.,-0.00010995,0.00000351,0.,0.00011350,0.00002096,0
 .,-0.00007531,-0.00015762,0.00000002,0.00000125,0.00000347,0.,0.000009
 75,-0.00001494,0.,-0.00006642,0.00005926,-0.00000014,-0.00136849,-0.00
 078103,0.00000017,0.00055954,0.00111985,-0.00000070,0.13608271,0.14046
 378,-0.00000007,-0.00000003,0.00002947,0.00000009,0.,0.00001346,-0.000
 00015,-0.00000006,-0.00036097,0.00000010,0.,0.00017796,-0.00000023,0.0
 0000100,0.00782975,-0.00000017,-0.00000007,-0.00077975,-0.00000008,0.0
 0000165,0.00678160,0.00000372,0.00000154,0.00362983,0.00002184,0.00001
 653,-0.03767922,-0.00000105,-0.00000048,0.00380381,0.00000004,0.,-0.00
 000121,-0.00000002,0.,-0.00000653,0.00000002,0.,-0.00000110,-0.0000000
 2,0.,-0.00000616,0.00000001,0.00000003,-0.00000229,0.,0.,0.00001455,0.
 ,0.,0.00001197,-0.00000002,-0.00000013,-0.00100500,0.00000019,0.000000
 14,0.00029163,-0.00000018,-0.00000067,-0.00407632,-0.00002396,-0.00001
 870,0.02599063,-0.00016142,-0.00007013,0.00000001,-0.00004279,-0.00005
 963,0.00000001,0.00028951,0.00113209,-0.00000018,0.00054932,-0.0025420
 5,0.00000024,0.00609513,-0.02510128,0.00000327,-0.00435886,-0.00187717
 ,0.00000053,-0.00121729,-0.00015239,0.00000004,-0.00423648,0.00175833,
 0.00000007,0.00376841,0.02780582,-0.00000368,-0.05717859,0.00418222,0.
 00000019,0.00013281,-0.00000844,0.,-0.00005979,-0.00004248,0.,0.000040
 94,0.00002382,0.,-0.00004362,0.00000212,0.,0.00004810,0.00006942,0.,-0
 .00001880,-0.00001088,0.,-0.00007992,0.00113264,-0.00000014,0.00005243
 ,-0.00144439,0.00000017,0.00009776,0.00001821,-0.00000003,-0.00005966,
 0.00132552,-0.00000015,0.00102461,-0.00050159,-0.00000009,0.05533707,0
 .00022410,0.00017426,-0.00000002,-0.00032612,-0.00008187,0.00000004,-0
 .00019600,0.00053584,-0.00000015,0.00213078,0.00013168,-0.00000047,0.0
 0374769,-0.01313640,0.00000222,-0.00358246,-0.00006603,0.00000091,-0.0
 0070685,0.00078631,-0.00000016,0.00332602,0.00174317,0.00000064,-0.003
 38210,-0.01107886,0.00000188,0.00482473,-0.33633546,0.00004017,-0.0001
 2739,0.00005484,0.,0.00004135,-0.00002865,0.,-0.00008751,0.00002745,0.
 ,0.00008838,0.00002094,0.,-0.00003212,-0.00011559,0.00000002,-0.000026
 48,0.00006310,-0.00000002,-0.00092169,0.00061105,-0.00000003,0.0003369
 2,-0.00092012,0.00000005,0.00002652,-0.00012118,-0.00000012,-0.0000751
 0,-0.00067374,0.00000019,0.00035454,0.00077536,-0.00000073,-0.00563129
 ,0.35763335,-0.00000003,0.,0.00014468,0.00000006,0.00000002,0.00008068
 ,-0.00000002,-0.00000019,-0.00064271,-0.00000034,-0.00000034,-0.002996
 53,-0.00000061,0.00000297,0.00460991,0.00000074,0.00000085,0.00590406,
 0.00000015,-0.00000019,-0.00056130,-0.00000016,0.00000063,0.00711668,0
 .00000040,0.00000109,0.00259356,0.00000015,0.00004020,-0.03536053,0.00
 000002,0.,-0.00001323,0.,0.,-0.00002056,0.00000001,0.,-0.00000256,0.,0
 .,0.00000921,0.,0.00000001,-0.00000713,0.,-0.00000002,-0.00005333,0.00
 000013,-0.00000007,0.00024009,-0.00000005,0.00000011,-0.00040245,-0.00
 000003,-0.00000011,-0.00100816,0.00000003,0.00000015,0.00072166,-0.000
 00020,-0.00000070,-0.00466421,-0.00000024,-0.00004439,0.02431695,-0.00
 011573,-0.00108194,0.00000045,-0.00134106,0.00120674,-0.00000019,0.000
 98920,-0.00028038,0.,-0.00129353,-0.00004290,0.00000006,0.00086353,-0.
 00055642,0.00000005,-0.00015657,0.00035923,-0.00000004,0.00017501,-0.0
 0008982,0.,-0.00022419,0.00012084,-0.00000001,0.00016520,-0.00011421,0
 .00000001,-0.00042380,-0.00001246,0.00000001,-0.03720902,0.00685806,-0
 .00000095,-0.21755045,0.12917058,-0.00001539,0.00367462,-0.00223636,0.
 00000045,0.00204091,-0.00042367,0.00000013,-0.00060846,-0.00105842,0.0
 0000012,-0.00000721,-0.00014387,0.00000002,-0.00002369,-0.00006731,0.,
 0.00001431,-0.00001581,0.,-0.00000136,0.00003563,0.,-0.00002265,0.0000
 1063,0.,-0.00003590,-0.00001827,0.,0.00000718,-0.00001805,0.,0.2507292
 5,-0.00518835,0.00035608,0.00000146,0.00085779,0.00036376,-0.00000004,
 -0.00097055,-0.00000496,0.00000002,0.00063633,0.00007714,-0.00000004,-
 0.00043196,0.00024595,-0.00000002,0.00007701,-0.00016159,0.00000002,-0
 .00007946,0.00004153,0.,0.00010520,-0.00005662,0.,-0.00008055,0.000047
 28,0.,0.00019464,0.00001166,0.,-0.01475950,0.01503918,-0.00000255,0.12
 728800,-0.15617948,0.00001429,0.02701972,-0.01106580,0.00000223,-0.002
 31267,-0.00595656,0.00000185,-0.00083571,0.00029980,-0.00000010,-0.000
 01346,-0.00002046,0.,0.00000473,0.00001050,0.,-0.00000398,0.00000026,0
 .,-0.00000019,-0.00001637,0.,0.00001057,-0.00000534,0.,0.00001628,0.00
 000927,0.,-0.00000320,0.00000752,0.,-0.13235826,0.15707576,0.00000082,
 0.00000123,0.01096206,-0.00000013,0.00000004,0.00038535,0.00000010,0.,
 -0.00010794,-0.00000008,-0.00000002,-0.00003423,0.00000005,-0.00000002
 ,-0.00000342,0.,0.00000001,0.00000013,0.,0.,-0.00000349,0.,0.,-0.00000
 168,0.,0.,-0.00000143,-0.00000002,0.,0.00000555,0.00000182,-0.00000268
 ,-0.00382396,-0.00001438,0.00001377,-0.04289974,-0.00000402,0.00000288
 ,0.00741147,0.00000038,0.00000197,0.00696193,0.00000021,-0.00000004,-0
 .00051092,0.,0.,-0.00008093,0.,0.,0.00000914,0.,0.,0.00000189,0.,0.,0.
 00000061,0.,0.,0.00000114,0.,0.,0.00000008,0.,0.,0.00000025,0.00001543
 ,-0.00001640,0.02710519,0.00069049,0.00114813,-0.00000016,-0.00025724,
 0.00004838,0.,0.00028880,-0.00013377,0.00000002,-0.00031712,-0.0000235
 8,0.00000001,0.00030403,-0.00020581,0.00000002,-0.00004318,0.00015780,
 -0.00000002,0.00007333,-0.00004480,0.,-0.00009345,0.00004096,0.,0.0000
 5709,-0.00004141,0.,-0.00015562,-0.00000789,0.,0.00151915,-0.00078167,
 0.00000013,0.00072215,0.00316069,-0.00000049,-0.29277382,-0.11263025,0
 .00001760,-0.01570193,-0.01490127,0.00000218,-0.00224519,0.00432968,-0
 .00000058,-0.00003547,-0.00007257,0.00000001,-0.00002822,-0.00005213,0
 .,0.00002468,-0.00001638,0.,0.00000078,0.00001631,0.,-0.00001398,0.000
 00475,0.,-0.00001675,-0.00000864,0.,0.00000322,-0.00000837,0.,0.000307
 54,-0.00064788,0.00000009,0.30742827,0.00194100,-0.00109131,0.00000010
 ,-0.00036018,0.00028587,-0.00000016,0.00022996,0.00011314,-0.00000004,
 -0.00028558,-0.00001664,0.,0.00018216,-0.00010800,0.00000003,-0.000038
 53,0.00006676,0.,0.00003471,-0.00001285,0.,-0.00004220,0.00002797,0.,0
 .00003725,-0.00002751,0.,-0.00009049,-0.00000440,0.,-0.00009971,-0.006
 69740,0.00000215,-0.03021260,-0.00350322,0.00000028,-0.11192106,-0.110
 57460,0.00001261,0.01622701,0.01163461,-0.00000179,0.00283913,-0.00159
 380,0.00000103,0.00008299,0.00006166,0.00000001,0.00000742,0.00000177,
 -0.00000002,-0.00000501,-0.00000149,0.,-0.00000077,0.00000704,0.,-0.00
 000350,0.00000246,0.,-0.00000631,-0.00000348,0.,0.00000240,-0.00000190
 ,0.,0.00061140,0.00065652,-0.00000059,0.12114470,0.10961853,-0.0000002
 8,0.00000017,-0.00036036,-0.00000002,-0.00000017,-0.00087032,0.,-0.000
 00003,-0.00011771,0.00000001,0.,-0.00004923,0.,0.00000003,0.00016814,0
 .,0.,-0.00001110,0.,0.,-0.00001575,0.,0.,-0.00000080,0.,0.,-0.00000804
 ,0.,0.,-0.00002104,0.00000006,0.00000204,0.00802494,0.00000454,0.00000
 040,-0.00168573,0.00001717,0.00001231,-0.02634566,-0.00000215,-0.00000
 156,-0.00017757,-0.00000029,0.00000101,0.00582864,0.,0.00000002,0.0001
 4646,0.,-0.00000002,-0.00013886,0.,0.,0.00001671,0.,0.,0.00000205,0.,0
 .,0.00000286,0.,0.,0.00000275,0.,0.,-0.00000152,-0.00000015,-0.0000005
 4,-0.00339581,-0.00001890,-0.00001310,0.02153989,-0.00528213,-0.002018
 64,0.00000054,0.00107241,-0.00101196,0.00000008,-0.00007684,0.00026029
 ,-0.00000004,-0.00005670,-0.00000993,0.,0.00008670,-0.00003695,0.,-0.0
 0003003,0.00002632,0.,0.00001047,-0.00000467,0.,-0.00001501,0.00002821
 ,0.,0.00002462,-0.00002547,0.,-0.00005006,0.00000123,0.,-0.00039019,-0
 .00028734,0.00000003,-0.00468999,0.00260978,-0.00000026,0.00732449,0.0
 2541877,-0.00000366,-0.05922582,-0.00834897,0.00000132,0.00487897,-0.0
 2800959,0.00000375,-0.00036285,-0.00028565,0.00000006,0.00001066,0.000
 00109,0.,0.00000420,-0.00000962,0.,-0.00000845,0.00000792,0.,0.0000016
 3,0.00000038,0.,0.00000104,0.00000149,0.,0.00000325,0.00000442,0.,0.00
 007100,0.00139763,-0.00000022,0.00093857,-0.00094575,0.00000011,0.0547
 5580,-0.00229295,0.00186876,0.00000129,-0.00043460,-0.00059820,0.00000
 003,0.00110901,0.00005455,-0.00000002,-0.00104065,-0.00011199,0.000000
 06,0.00075466,-0.00043733,0.00000003,-0.00014496,0.00029643,-0.0000000
 3,0.00013660,-0.00007753,0.,-0.00018214,0.00012429,-0.00000001,0.00015
 271,-0.00010771,0.,-0.00036367,-0.00001662,0.00000001,-0.00076163,0.00
 052756,-0.00000057,0.00435518,0.00086927,0.00000081,-0.00497271,-0.011
 89953,0.00000234,-0.00903844,-0.33620430,0.00004213,0.00246019,-0.0112
 4427,0.00000229,-0.00026232,-0.00019796,-0.00000004,-0.00001218,-0.000
 02870,0.,0.00002673,-0.00002169,0.,-0.00000924,0.00003737,0.,-0.000015
 35,0.00000818,0.,-0.00002313,-0.00001200,0.,0.00000792,-0.00000576,0.,
 -0.00014348,-0.00086423,0.00000011,0.00026478,0.00074838,-0.00000058,0
 .01049597,0.35634556,0.00000041,0.00000135,0.01017089,-0.00000001,-0.0
 0000003,-0.00034746,-0.00000009,0.,0.00011561,0.00000011,0.00000002,0.
 00007502,-0.00000009,0.00000005,-0.00002650,0.00000002,-0.00000003,-0.
 00000733,-0.00000002,0.,-0.00000595,0.00000002,-0.00000002,-0.00000348
 ,-0.00000002,0.00000001,-0.00000237,0.00000004,0.,0.00000104,0.0000002
 8,-0.00000056,-0.00355313,-0.00000061,0.00000075,0.00723524,0.00000047
 ,0.00000225,0.00444626,0.00000163,0.00004210,-0.04084270,-0.00000053,0
 .00000244,0.00568215,0.,-0.00000006,-0.00053650,0.,0.,0.00004034,0.,0.
 ,0.00000630,0.,0.,0.00000426,0.,0.,0.00000168,0.,0.,0.00000065,0.,0.,0
 .00000467,0.00000002,0.00000009,-0.00021198,-0.00000006,-0.00000057,-0
 .00336334,-0.00000154,-0.00004696,0.02656650,0.00525357,0.00083161,-0.
 00000039,-0.00229109,0.00023102,0.00000010,-0.00046025,-0.00261652,0.0
 0000025,-0.00085716,-0.00023096,0.00000005,0.00032930,-0.00008398,0.,-
 0.00016831,-0.00024238,0.00000003,0.00002585,0.00013384,-0.00000002,0.
 00002552,0.00004391,0.,0.00008178,-0.00005803,0.,-0.00013271,-0.000006
 54,0.,0.00030439,-0.00117706,0.00000032,0.00084479,0.00007526,-0.00000
 002,-0.00173984,-0.00450002,0.00000079,-0.01551970,0.01479075,-0.00000
 192,-0.27575622,0.12954227,-0.00001510,0.00013459,0.00026477,-0.000000
 03,-0.00001313,0.00010348,-0.00000001,-0.00015909,0.00027148,0.,0.0000
 0375,-0.00002616,0.,0.00002677,0.00000443,0.,0.00001081,0.00000289,0.,
 0.00000750,0.00001609,0.,-0.00002414,0.00007782,-0.00000004,-0.0006761
 4,0.00067156,-0.00000009,0.00100424,-0.00006628,-0.00000005,0.28974490
 ,0.02889901,-0.00473352,0.00000092,-0.00054995,-0.00065368,-0.00000013
 ,0.00230018,0.00018120,-0.00000021,-0.00218653,0.00007246,0.00000002,0
 .00041064,-0.00013898,0.00000003,-0.00004792,-0.00008879,0.,-0.0000014
 3,0.00005099,-0.00000002,-0.00001022,0.00004747,0.,0.00008131,-0.00004
 566,0.,-0.00012530,-0.00005951,0.,0.00061880,-0.00743365,0.00000172,-0
 .00216208,-0.00133005,0.00000017,-0.00331227,-0.00017591,0.00000123,-0
 .01434612,0.01123333,-0.00000092,0.12816135,-0.13101246,0.00001114,-0.
 00006283,0.00026926,-0.00000005,0.00034554,0.00041978,-0.00000009,-0.0
 0027131,0.00027653,0.,0.00001072,-0.00002154,0.,0.00001572,-0.00000156
 ,0.,0.00001171,-0.00000298,0.,-0.00001558,0.00000068,0.,0.00028852,0.0
 0008919,-0.00000025,-0.00073975,0.00041191,0.00000004,0.00074107,0.000
 94747,-0.00000086,-0.13805325,0.13169801,-0.00000382,0.00000061,0.0030
 7551,0.00000008,-0.00000021,-0.00176626,-0.00000040,0.,-0.00012904,0.0
 0000035,-0.00000005,-0.00024034,-0.00000008,0.00000005,0.00023430,0.00
 000003,0.00000001,-0.00010424,-0.00000001,-0.00000002,-0.00006352,0.,0
 .,-0.00000108,-0.00000002,0.,-0.00000585,0.00000003,0.,-0.00003722,-0.
 00000009,0.00000184,0.00516169,0.00000025,0.00000013,-0.00011818,0.000
 00059,0.00000134,0.00888624,0.00000208,-0.00000128,0.00319617,-0.00001
 501,0.00001167,-0.03713948,0.,-0.00000009,-0.00022529,-0.00000006,-0.0
 0000009,-0.00018304,0.00000007,-0.00000002,0.00021315,0.,0.,0.00000760
 ,0.,0.,0.00001192,0.,0.,0.00000461,0.,0.,-0.00000817,-0.00000005,-0.00
 000025,-0.00176926,0.00000012,0.00000006,0.00083041,-0.00000018,-0.000
 00093,-0.00544988,0.00001614,-0.00001278,0.02561926\\0.00001344,-0.000
 05312,-0.00000804,0.00009106,-0.00005613,0.00000204,-0.00010697,0.0000
 3817,0.00000112,0.00011311,-0.00003962,-0.00000065,-0.00008482,0.00004
 826,-0.00000035,0.00000836,-0.00000918,0.00000023,-0.00001527,-0.00001
 840,0.00000022,0.00001163,0.00000639,-0.00000016,0.00001219,-0.0000053
 9,0.00000008,0.00000697,0.00000994,0.00000003,-0.00002658,0.00002555,0
 .00000128,-0.00001191,0.00002982,0.00000317,0.00005050,-0.00003799,-0.
 00000086,-0.00005492,-0.00002288,-0.00000007,0.00001073,0.00007225,0.0
 0000269,-0.00000863,0.00001971,0.00000049,-0.00001526,0.00001484,-0.00
 000005,-0.00001104,-0.00001209,-0.00000001,0.00000103,-0.00000727,-0.0
 0000004,0.00000939,-0.00001080,-0.00000005,0.00000520,0.00000332,-0.00
 000002,0.00000285,0.00000608,0.00000008,0.00000452,0.00000983,-0.00000
 104,-0.00001928,0.00000044,0.00000007,-0.00000097,0.00000248,-0.000000
 17,0.00001467,-0.00001422,0.00000001\\\@
 The archive entry for this job was punched.


 THOUGH I SPEAK WITH THE TONGUES OF MEN AND OF ANGELS, 
 AND HAVE NOT LOVE,
 I AM BECOME AS SOUNDING BRASS, A TINKLING CYMBAL.
 AND THOUGH I HAVE THE GIFT OF PROPHECY,
 AND UNDERSTAND ALL MYSTERIES, AND ALL KNOWLEDGE.
 AND THOUGH I HAVE ALL FAITH, SO THAT I COULD REMOVE MOUNTAINS,
 AND HAVE NOT LOVE, I AM NOTHING.
 AND THOUGH I BESTOW ALL MY GOODS TO FEED THE POOR,
 AND THOUGH I GIVE MY BODY TO BE BURNED,
 AND HAVE NOT LOVE IT PROFITETH ME NOTHING.
 LOVE SUFFERETH LONG, AND IS KIND,
 LOVE ENVIETH NOT,
 LOVE VAUNTETH NOT ITSELF, IS NOT PUFFED UP,
 DOTH NOT BEHAVE ITSELF UNSEEMLY, SEEKETH NOT HER OWN,
 IS NOT EASILY PROVOKED, THINKETH NO EVIL,
 REJOICETH NOT IN INIQUITY, BUT REJOICETH IN THE TRUTH,
 BEARETH ALL THINGS, BELIEVETH ALL THINGS,
 HOPETH ALL THINGS, ENDURETH ALL THINGS.
 LOVE NEVER FAILETH, BUT WHETHER THERE BE PROPHECIES, THEY SHALL FAIL, 
 WHETHER THERE BE TONGUES, THEY SHALL CEASE,
 WHETHER THERE BE KNOWLEDGE, IT SHALL VANISH AWAY.
 FOR WE KNOW IN PART, AND WE PROPHESY IN PART.
 BUT WHEN THAT WHICH IS PERFECT IS COME, THEN THAT WHICH IS IN PART 
 SHALL BE DONE AWAY. 
 WHEN I WAS A CHILD, I SPAKE AS A CHILD, I UNDERSTOOD AS A CHILD, 
 I THOUGHT AS A CHILD.
 BUT WHEN I BECAME A MAN, I PUT AWAY CHILDISH THINGS.
 FOR NOW WE SEE THROUGH A GLASS, DARKLY, BUT THEN FACE TO FACE.
 NOW I KNOW IN PART. BUT THEN SHALL I KNOW EVEN AS ALSO I AM KNOWN.
 AND NOW ABIDETH FAITH, HOPE AND LOVE, THESE THREE.
 BUT THE GREATEST OF THESE IS LOVE.

                     I CORINTHIANS 13
 Job cpu time:       0 days  1 hours 25 minutes 25.8 seconds.
 Elapsed time:       0 days  0 hours  2 minutes 41.3 seconds.
 File lengths (MBytes):  RWF=    267 Int=      0 D2E=      0 Chk=      8 Scr=      2
 Normal termination of Gaussian 16 at Sat Jan 31 06:17:38 2026.
 Initial command:
 /uufs/chpc.utah.edu/sys/installdir/gaussian16/C01/AVX/g16/l1.exe "/scratch/general/vast/u6067110/GAUSSSCRDIR/10754890-notchpeak.peaks/Gau-996273.inp" -scrdir="/scratch/general/vast/u6067110/GAUSSSCRDIR/10754890-notchpeak.peaks/"
 Entering Link 1 = /uufs/chpc.utah.edu/sys/installdir/gaussian16/C01/AVX/g16/l1.exe PID=    998918.
  
 Copyright (c) 1988-2019, Gaussian, Inc.  All Rights Reserved.
  
 This is part of the Gaussian(R) 16 program.  It is based on
 the Gaussian(R) 09 system (copyright 2009, Gaussian, Inc.),
 the Gaussian(R) 03 system (copyright 2003, Gaussian, Inc.),
 the Gaussian(R) 98 system (copyright 1998, Gaussian, Inc.),
 the Gaussian(R) 94 system (copyright 1995, Gaussian, Inc.),
 the Gaussian 92(TM) system (copyright 1992, Gaussian, Inc.),
 the Gaussian 90(TM) system (copyright 1990, Gaussian, Inc.),
 the Gaussian 88(TM) system (copyright 1988, Gaussian, Inc.),
 the Gaussian 86(TM) system (copyright 1986, Carnegie Mellon
 University), and the Gaussian 82(TM) system (copyright 1983,
 Carnegie Mellon University). Gaussian is a federally registered
 trademark of Gaussian, Inc.
  
 This software contains proprietary and confidential information,
 including trade secrets, belonging to Gaussian, Inc.
  
 This software is provided under written license and may be
 used, copied, transmitted, or stored only in accord with that
 written license.
  
 The following legend is applicable only to US Government
 contracts under FAR:
  
                    RESTRICTED RIGHTS LEGEND
  
 Use, reproduction and disclosure by the US Government is
 subject to restrictions as set forth in subparagraphs (a)
 and (c) of the Commercial Computer Software - Restricted
 Rights clause in FAR 52.227-19.
  
 Gaussian, Inc.
 340 Quinnipiac St., Bldg. 40, Wallingford CT 06492
  
  
 ---------------------------------------------------------------
 Warning -- This program may not be used in any manner that
 competes with the business of Gaussian, Inc. or will provide
 assistance to any competitor of Gaussian, Inc.  The licensee
 of this program is prohibited from giving any competitor of
 Gaussian, Inc. access to this program.  By using this program,
 the user acknowledges that Gaussian, Inc. is engaged in the
 business of creating and licensing software in the field of
 computational chemistry and represents and warrants to the
 licensee that it is not a competitor of Gaussian, Inc. and that
 it will not use this program in any manner prohibited above.
 ---------------------------------------------------------------
  

 Cite this work as:
 Gaussian 16, Revision C.01,
 M. J. Frisch, G. W. Trucks, H. B. Schlegel, G. E. Scuseria, 
 M. A. Robb, J. R. Cheeseman, G. Scalmani, V. Barone, 
 G. A. Petersson, H. Nakatsuji, X. Li, M. Caricato, A. V. Marenich, 
 J. Bloino, B. G. Janesko, R. Gomperts, B. Mennucci, H. P. Hratchian, 
 J. V. Ortiz, A. F. Izmaylov, J. L. Sonnenberg, D. Williams-Young, 
 F. Ding, F. Lipparini, F. Egidi, J. Goings, B. Peng, A. Petrone, 
 T. Henderson, D. Ranasinghe, V. G. Zakrzewski, J. Gao, N. Rega, 
 G. Zheng, W. Liang, M. Hada, M. Ehara, K. Toyota, R. Fukuda, 
 J. Hasegawa, M. Ishida, T. Nakajima, Y. Honda, O. Kitao, H. Nakai, 
 T. Vreven, K. Throssell, J. A. Montgomery, Jr., J. E. Peralta, 
 F. Ogliaro, M. J. Bearpark, J. J. Heyd, E. N. Brothers, K. N. Kudin, 
 V. N. Staroverov, T. A. Keith, R. Kobayashi, J. Normand, 
 K. Raghavachari, A. P. Rendell, J. C. Burant, S. S. Iyengar, 
 J. Tomasi, M. Cossi, J. M. Millam, M. Klene, C. Adamo, R. Cammi, 
 J. W. Ochterski, R. L. Martin, K. Morokuma, O. Farkas, 
 J. B. Foresman, and D. J. Fox, Gaussian, Inc., Wallingford CT, 2019.
 
 ******************************************
 Gaussian 16:  ES64L-G16RevC.01  3-Jul-2019
                31-Jan-2026 
 ******************************************
 %NProcShared=32
 Will use up to   32 processors via shared memory.
 %Mem=48GB
 %chk=vsa2_crest_conformers-1.chk
 ----------------------------------------------------------------------
 #N Guess=Read Geom=Check Integral(Ultrafine) Density Pop=NBO7 Pop=Hirs
 hfeld Pop=(ChelpG,ReadRadii) Polar Prop=(Potential,EFG) Volume M062X E
 mpiricalDispersion=GD3 def2TZVPP SCRF(IEFPCM,solvent=THF)
 ----------------------------------------------------------------------
 1/29=2,38=1,172=1/1;
 2/12=2,40=1/2;
 3/5=44,7=202,11=2,14=-4,25=1,30=1,70=2201,72=20,74=-55,75=-5,116=-2,124=31/1,2,3;
 4/5=1/1;
 5/5=2,38=6,53=20,98=1/2;
 8/6=4,10=90,11=11/1;
 10/6=1,13=10/2;
 6/7=2,8=2,9=2,10=2,14=4,15=8,20=103,22=-1,28=1,40=1,44=1,79=1,113=1,114=1,124=3103/1,2,4,12;
 99/5=1,9=1/99;
 -----------------------
 vsa2_crest_conformers-1
 -----------------------
 Structure from the checkpoint file:  "vsa2_crest_conformers-1.chk"
 Charge = -1 Multiplicity = 1
 Redundant internal coordinates found in file.  (old form).
 C,0,2.4121733264,-0.4328341371,0.0001224934
 C,0,1.1746812803,-1.1460556694,0.0002776814
 N,0,0.0078548536,-0.52313907,0.0002234741
 C,0,-1.1452858436,-1.150545678,0.000342311
 C,0,-2.4032861697,-0.4498516835,0.0002862627
 C,0,-2.4799243128,0.966898888,0.0001072812
 C,0,-3.7018931956,1.6224837228,0.0000530718
 C,0,-4.9088144178,0.909864386,0.0001743167
 C,0,-4.8537952099,-0.4865430997,0.0003565669
 C,0,-3.6331418444,-1.1521488519,0.0004122774
 N,0,3.5663376254,-1.1513172704,0.0002281075
 C,0,4.7210151412,-0.5009231056,0.0001356042
 C,0,4.8606735162,0.8867911953,-0.0000711445
 C,0,3.6733819769,1.6402171783,-0.0001689362
 C,0,2.4561440733,0.9949487632,-0.0000658295
 H,0,1.2439991258,-2.2459485551,0.0004468792
 H,0,-1.1836685293,-2.2554685891,0.0004918947
 H,0,-1.5405864079,1.5214196567,0.0000115823
 H,0,-3.7205513998,2.7159782431,-0.0000886156
 H,0,-5.8672881303,1.432012485,0.0001287346
 H,0,-5.7806480851,-1.0669706772,0.0004566214
 H,0,-3.6100853417,-2.2455323974,0.0005563124
 H,0,5.6229263359,-1.1291611909,0.0002082066
 H,0,5.845947328,1.3539917056,-0.0001419722
 H,0,3.7123960775,2.7334612307,-0.0003232821
 H,0,1.5090882276,1.5338625207,-0.0001298993
 Recover connectivity data from disk.
                           ----------------------------
                           !    Current Parameters    !
                           ! (Angstroms and Degrees)  !
 --------------------------                            --------------------------
 ! Name  Definition              Value                                          !
 --------------------------------------------------------------------------------
 ! R1    R(1,2)                  1.4283                                         !
 ! R2    R(1,11)                 1.3595                                         !
 ! R3    R(1,15)                 1.4285                                         !
 ! R4    R(2,3)                  1.3227                                         !
 ! R5    R(2,16)                 1.1021                                         !
 ! R6    R(3,4)                  1.3128                                         !
 ! R7    R(4,5)                  1.44                                           !
 ! R8    R(4,17)                 1.1056                                         !
 ! R9    R(5,6)                  1.4188                                         !
 ! R10   R(5,10)                 1.4163                                         !
 ! R11   R(6,7)                  1.3867                                         !
 ! R12   R(6,18)                 1.0908                                         !
 ! R13   R(7,8)                  1.4016                                         !
 ! R14   R(7,19)                 1.0937                                         !
 ! R15   R(8,9)                  1.3975                                         !
 ! R16   R(8,20)                 1.0915                                         !
 ! R17   R(9,10)                 1.3903                                         !
 ! R18   R(9,21)                 1.0936                                         !
 ! R19   R(10,22)                1.0936                                         !
 ! R20   R(11,12)                1.3253                                         !
 ! R21   R(12,13)                1.3947                                         !
 ! R22   R(12,23)                1.0991                                         !
 ! R23   R(13,14)                1.4062                                         !
 ! R24   R(13,24)                1.0904                                         !
 ! R25   R(14,15)                1.3777                                         !
 ! R26   R(14,25)                1.0939                                         !
 ! R27   R(15,26)                1.0897                                         !
 ! A1    A(2,1,11)             118.1404                                         !
 ! A2    A(2,1,15)             121.7207                                         !
 ! A3    A(11,1,15)            120.1389                                         !
 ! A4    A(1,2,3)              121.9475                                         !
 ! A5    A(1,2,16)             116.3506                                         !
 ! A6    A(3,2,16)             121.7019                                         !
 ! A7    A(2,3,4)              123.3543                                         !
 ! A8    A(3,4,5)              122.3327                                         !
 ! A9    A(3,4,17)             120.5395                                         !
 ! A10   A(5,4,17)             117.1278                                         !
 ! A11   A(4,5,6)              122.2137                                         !
 ! A12   A(4,5,10)             121.1545                                         !
 ! A13   A(6,5,10)             116.6318                                         !
 ! A14   A(5,6,7)              121.3099                                         !
 ! A15   A(5,6,18)             117.4583                                         !
 ! A16   A(7,6,18)             121.2318                                         !
 ! A17   A(6,7,8)              121.227                                          !
 ! A18   A(6,7,19)             119.191                                          !
 ! A19   A(8,7,19)             119.5819                                         !
 ! A20   A(7,8,9)              118.3032                                         !
 ! A21   A(7,8,20)             120.8603                                         !
 ! A22   A(9,8,20)             120.8366                                         !
 ! A23   A(8,9,10)             120.8594                                         !
 ! A24   A(8,9,21)             119.7999                                         !
 ! A25   A(10,9,21)            119.3407                                         !
 ! A26   A(5,10,9)             121.6689                                         !
 ! A27   A(5,10,22)            118.5201                                         !
 ! A28   A(9,10,22)            119.8111                                         !
 ! A29   A(1,11,12)            118.706                                          !
 ! A30   A(11,12,13)           125.1381                                         !
 ! A31   A(11,12,23)           115.7491                                         !
 ! A32   A(13,12,23)           119.1128                                         !
 ! A33   A(12,13,14)           116.6514                                         !
 ! A34   A(12,13,24)           121.1164                                         !
 ! A35   A(14,13,24)           122.2323                                         !
 ! A36   A(13,14,15)           119.6733                                         !
 ! A37   A(13,14,25)           120.3544                                         !
 ! A38   A(15,14,25)           119.9723                                         !
 ! A39   A(1,15,14)            119.6924                                         !
 ! A40   A(1,15,26)            117.8777                                         !
 ! A41   A(14,15,26)           122.4299                                         !
 ! D1    D(11,1,2,3)           179.9983                                         !
 ! D2    D(11,1,2,16)           -0.0016                                         !
 ! D3    D(15,1,2,3)             0.0016                                         !
 ! D4    D(15,1,2,16)         -179.9983                                         !
 ! D5    D(2,1,11,12)         -179.9976                                         !
 ! D6    D(15,1,11,12)          -0.0008                                         !
 ! D7    D(2,1,15,14)          179.998                                          !
 ! D8    D(2,1,15,26)           -0.0025                                         !
 ! D9    D(11,1,15,14)           0.0014                                         !
 ! D10   D(11,1,15,26)        -179.9991                                         !
 ! D11   D(1,2,3,4)            179.999                                          !
 ! D12   D(16,2,3,4)            -0.0011                                         !
 ! D13   D(2,3,4,5)            179.9997                                         !
 ! D14   D(2,3,4,17)            -0.0003                                         !
 ! D15   D(3,4,5,6)             -0.0004                                         !
 ! D16   D(3,4,5,10)           179.9998                                         !
 ! D17   D(17,4,5,6)           179.9996                                         !
 ! D18   D(17,4,5,10)           -0.0003                                         !
 ! D19   D(4,5,6,7)            179.9999                                         !
 ! D20   D(4,5,6,18)             0.0                                            !
 ! D21   D(10,5,6,7)            -0.0003                                         !
 ! D22   D(10,5,6,18)          179.9998                                         !
 ! D23   D(4,5,10,9)          -179.9998                                         !
 ! D24   D(4,5,10,22)            0.0001                                         !
 ! D25   D(6,5,10,9)             0.0003                                         !
 ! D26   D(6,5,10,22)         -179.9997                                         !
 ! D27   D(5,6,7,8)              0.0001                                         !
 ! D28   D(5,6,7,19)          -179.9998                                         !
 ! D29   D(18,6,7,8)           179.9999                                         !
 ! D30   D(18,6,7,19)            0.0                                            !
 ! D31   D(6,7,8,9)              0.0002                                         !
 ! D32   D(6,7,8,20)          -179.9999                                         !
 ! D33   D(19,7,8,9)          -179.9999                                         !
 ! D34   D(19,7,8,20)            0.0                                            !
 ! D35   D(7,8,9,10)            -0.0002                                         !
 ! D36   D(7,8,9,21)           179.9998                                         !
 ! D37   D(20,8,9,10)          179.9999                                         !
 ! D38   D(20,8,9,21)           -0.0001                                         !
 ! D39   D(8,9,10,5)            -0.0001                                         !
 ! D40   D(8,9,10,22)          180.0                                            !
 ! D41   D(21,9,10,5)          179.9999                                         !
 ! D42   D(21,9,10,22)          -0.0001                                         !
 ! D43   D(1,11,12,13)          -0.0003                                         !
 ! D44   D(1,11,12,23)        -179.9989                                         !
 ! D45   D(11,12,13,14)          0.0009                                         !
 ! D46   D(11,12,13,24)       -179.9997                                         !
 ! D47   D(23,12,13,14)        179.9994                                         !
 ! D48   D(23,12,13,24)         -0.0012                                         !
 ! D49   D(12,13,14,15)         -0.0003                                         !
 ! D50   D(12,13,14,25)        179.9995                                         !
 ! D51   D(24,13,14,15)       -179.9997                                         !
 ! D52   D(24,13,14,25)          0.0001                                         !
 ! D53   D(13,14,15,1)          -0.0008                                         !
 ! D54   D(13,14,15,26)        179.9997                                         !
 ! D55   D(25,14,15,1)         179.9994                                         !
 ! D56   D(25,14,15,26)         -0.0001                                         !
 --------------------------------------------------------------------------------
                          Input orientation:                          
 ---------------------------------------------------------------------
 Center     Atomic      Atomic             Coordinates (Angstroms)
 Number     Number       Type             X           Y           Z
 ---------------------------------------------------------------------
      1          6           0        2.412173   -0.432834    0.000122
      2          6           0        1.174681   -1.146056    0.000278
      3          7           0        0.007855   -0.523139    0.000223
      4          6           0       -1.145286   -1.150546    0.000342
      5          6           0       -2.403286   -0.449852    0.000286
      6          6           0       -2.479924    0.966899    0.000107
      7          6           0       -3.701893    1.622484    0.000053
      8          6           0       -4.908814    0.909864    0.000174
      9          6           0       -4.853795   -0.486543    0.000357
     10          6           0       -3.633142   -1.152149    0.000412
     11          7           0        3.566338   -1.151317    0.000228
     12          6           0        4.721015   -0.500923    0.000136
     13          6           0        4.860674    0.886791   -0.000071
     14          6           0        3.673382    1.640217   -0.000169
     15          6           0        2.456144    0.994949   -0.000066
     16          1           0        1.243999   -2.245949    0.000447
     17          1           0       -1.183669   -2.255469    0.000492
     18          1           0       -1.540586    1.521420    0.000012
     19          1           0       -3.720551    2.715978   -0.000089
     20          1           0       -5.867288    1.432012    0.000129
     21          1           0       -5.780648   -1.066971    0.000457
     22          1           0       -3.610085   -2.245532    0.000556
     23          1           0        5.622926   -1.129161    0.000208
     24          1           0        5.845947    1.353992   -0.000142
     25          1           0        3.712396    2.733461   -0.000323
     26          1           0        1.509088    1.533863   -0.000130
 ---------------------------------------------------------------------
                    Distance matrix (angstroms):
                    1          2          3          4          5
     1  C    0.000000
     2  C    1.428311   0.000000
     3  N    2.406014   1.322690   0.000000
     4  C    3.629136   2.319971   1.312773   0.000000
     5  C    4.815490   3.645072   2.412255   1.439978   0.000000
     6  C    5.088406   4.221459   2.899872   2.502965   1.418822
     7  C    6.450282   5.607655   4.285549   3.771728   2.445599
     8  C    7.443098   6.421505   5.121244   4.290622   2.850702
     9  C    7.266167   6.064444   4.861788   3.767485   2.450784
    10  C    6.087959   4.807827   3.694930   2.487857   1.416251
    11  N    1.359527   2.391662   3.613503   4.711624   6.010696
    12  C    2.309846   3.604536   4.713213   5.902160   7.124484
    13  C    2.781468   4.209395   5.053489   6.342105   7.385914
    14  C    2.426559   3.742569   4.256313   5.568475   6.426063
    15  C    1.428460   2.495205   2.880748   4.192069   5.069666
    16  H    2.156853   1.102075   2.120407   2.628420   4.065545
    17  H    4.031386   2.606264   2.102545   1.105589   2.178926
    18  H    4.409469   3.806324   2.564740   2.701048   2.151781
    19  H    6.893862   6.235271   4.938916   4.645643   3.428945
    20  H    8.486880   7.499051   6.191924   5.382092   3.942172
    21  H    8.217326   6.955779   5.813993   4.636116   3.433280
    22  H    6.289155   4.909464   4.007010   2.697079   2.163523
    23  H    3.285393   4.448277   5.647680   6.768246   8.054908
    24  H    3.870859   5.298204   6.132450   7.426308   8.444152
    25  H    3.422865   4.635801   4.932451   6.219532   6.894567
    26  H    2.164130   2.700702   2.546558   3.775149   4.386547
                    6          7          8          9         10
     6  C    0.000000
     7  C    1.386723   0.000000
     8  C    2.429560   1.401601   0.000000
     9  C    2.783479   2.403096   1.397491   0.000000
    10  C    2.412524   2.775484   2.424714   1.390333   0.000000
    11  N    6.406569   7.779534   8.722194   8.446334   7.199480
    12  C    7.349016   8.686440   9.732622   9.574821   8.379501
    13  C    7.341035   8.594114   9.769515   9.811063   8.735112
    14  C    6.190035   7.375296   8.613217   8.788394   7.821931
    15  C    4.936148   6.189929   7.365450   7.458554   6.456735
    16  H    4.918333   6.279062   6.914931   6.346543   4.998290
    17  H    3.473317   4.623848   4.888358   4.074178   2.686491
    18  H    1.090802   2.163668   3.423297   3.874180   3.395108
    19  H    2.144396   1.093654   2.161947   3.397114   3.869115
    20  H    3.419147   2.173756   1.091472   2.169798   3.416036
    21  H    3.877035   3.399174   2.160549   1.093596   2.149195
    22  H    3.405434   3.869106   3.412217   2.154265   1.093627
    23  H    8.369567   9.722336  10.727310  10.496411   9.256097
    24  H    8.334865   9.551615  10.763928  10.856890   9.804788
    25  H    6.439377   7.497063   8.811968   9.151397   8.309927
    26  H    4.029103   5.211735   6.448166   6.675951   5.801481
                   11         12         13         14         15
    11  N    0.000000
    12  C    1.325252   0.000000
    13  C    2.414372   1.394724   0.000000
    14  C    2.793586   2.383698   1.406169   0.000000
    15  C    2.416400   2.714272   2.406961   1.377694   0.000000
    16  H    2.567387   3.890341   4.784808   4.583032   3.460161
    17  H    4.876649   6.159847   6.812332   6.226340   4.879903
    18  H    5.764043   6.580085   6.432642   5.215322   4.031256
    19  H    8.249529   9.033742   8.774015   7.471781   6.411982
    20  H    9.780945  10.763290  10.741807   9.542942   8.334899
    21  H    9.347366  10.516907  10.819192   9.834000   8.490951
    22  H    7.259363   8.511809   9.031346   8.255177   6.877489
    23  H    2.056708   1.099148   2.155248   3.386765   3.813181
    24  H    3.387210   2.169374   1.090431   2.191339   3.408765
    25  H    3.887523   3.388002   2.174565   1.093940   2.144900
    26  H    3.382671   3.802213   3.413477   2.166905   1.089653
                   16         17         18         19         20
    16  H    0.000000
    17  H    2.427686   0.000000
    18  H    4.684760   3.793715   0.000000
    19  H    7.019080   5.581313   2.485803   0.000000
    20  H    8.006110   5.961024   4.327625   2.501409   0.000000
    21  H    7.122897   4.748131   4.967684   4.307517   2.500485
    22  H    4.854084   2.426437   4.297994   4.962740   4.315009
    23  H    4.519095   6.899152   7.638160  10.103746  11.772198
    24  H    5.842730   7.902133   7.388431   9.662966  11.713495
    25  H    5.557653   6.990055   5.390999   7.432968   9.667684
    26  H    3.789095   4.648652   3.049700   5.361579   7.377079
                   21         22         23         24         25
    21  H    0.000000
    22  H    2.469889   0.000000
    23  H   11.403744   9.300257   0.000000
    24  H   11.875975  10.117961   2.493148   0.000000
    25  H   10.225516   8.854892   4.309290   2.540665   0.000000
    26  H    7.739805   6.363157   4.900547   4.340588   2.508705
                   26
    26  H    0.000000
 Stoichiometry    C13H11N2(1-)
 Framework group  C1[X(C13H11N2)]
 Deg. of freedom    72
 Full point group                 C1      NOp   1
 Largest Abelian subgroup         C1      NOp   1
 Largest concise Abelian subgroup C1      NOp   1
                         Standard orientation:                         
 ---------------------------------------------------------------------
 Center     Atomic      Atomic             Coordinates (Angstroms)
 Number     Number       Type             X           Y           Z
 ---------------------------------------------------------------------
      1          6           0        2.427566   -0.447998   -0.000038
      2          6           0        1.188022   -1.157646    0.000117
      3          7           0        0.022997   -0.531366    0.000063
      4          6           0       -1.131949   -1.155443    0.000182
      5          6           0       -2.387922   -0.451122    0.000126
      6          6           0       -2.460473    0.965844   -0.000053
      7          6           0       -3.680545    1.624951   -0.000108
      8          6           0       -4.889517    0.915817    0.000014
      9          6           0       -4.838527   -0.480744    0.000196
     10          6           0       -3.619799   -1.149868    0.000252
     11          7           0        3.579653   -1.169808    0.000067
     12          6           0        4.736202   -0.522747   -0.000025
     13          6           0        4.879863    0.864558   -0.000232
     14          6           0        3.694750    1.621406   -0.000330
     15          6           0        2.475656    0.979653   -0.000227
     16          1           0        1.254166   -2.257734    0.000286
     17          1           0       -1.173519   -2.260250    0.000331
     18          1           0       -1.519539    1.517652   -0.000149
     19          1           0       -3.696048    2.718495   -0.000249
     20          1           0       -5.846481    1.440728   -0.000032
     21          1           0       -5.767051   -1.058495    0.000296
     22          1           0       -3.599897   -2.243314    0.000396
     23          1           0        5.636297   -1.153585    0.000048
     24          1           0        5.866481    1.328914   -0.000303
     25          1           0        3.736919    2.714533   -0.000484
     26          1           0        1.530159    1.521296   -0.000291
 ---------------------------------------------------------------------
 Rotational constants (GHZ):           2.2151660           0.2210131           0.2009625
 Standard basis: def2TZVPP (5D, 7F)
 There are   705 symmetry adapted cartesian basis functions of A   symmetry.
 There are   619 symmetry adapted basis functions of A   symmetry.
   619 basis functions,   952 primitive gaussians,   705 cartesian basis functions
    52 alpha electrons       52 beta electrons
       nuclear repulsion energy       818.0329884643 Hartrees.
 NAtoms=   26 NActive=   26 NUniq=   26 SFac= 1.00D+00 NAtFMM=   60 NAOKFM=F Big=F
 Integral buffers will be    131072 words long.
 Raffenetti 2 integral format.
 Two-electron integral symmetry is turned on.
 Nuclear repulsion after empirical dispersion term =      818.0320278139 Hartrees.
 ------------------------------------------------------------------------------
 Polarizable Continuum Model (PCM)
 =================================
 Model                : PCM.
 Atomic radii         : UFF (Universal Force Field).
 Polarization charges : Total charges.
 Charge compensation  : None.
 Solution method      : On-the-fly selection.
 Cavity type          : Scaled VdW (van der Waals Surface) (Alpha=1.100).
 Cavity algorithm     : GePol (No added spheres)
                        Default sphere list used, NSphG=   26.
                        Lebedev-Laikov grids with approx.  5.0 points / Ang**2.
                        Smoothing algorithm: York/Karplus (Gamma=1.0000).
                        Polarization charges: spherical gaussians, with
                                              point-specific exponents (IZeta= 3).
                        Self-potential: point-specific (ISelfS= 7).
                        Self-field    : sphere-specific E.n sum rule (ISelfD= 2).
 Solvent              : TetraHydroFuran, Eps=   7.425700 Eps(inf)=   1.974025
 ------------------------------------------------------------------------------
 One-electron integrals computed using PRISM.
   1 Symmetry operations used in ECPInt.
 ECPInt:  NShTT=   26796 NPrTT=   75829 LenC2=   22542 LenP2D=   47732.
 LDataN:  DoStor=T MaxTD1= 6 Len=  172
 NBasis=   619 RedAO= T EigKep=  8.40D-06  NBF=   619
 NBsUse=   619 1.00D-06 EigRej= -1.00D+00 NBFU=   619
 Initial guess from the checkpoint file:  "vsa2_crest_conformers-1.chk"
 B after Tr=    -0.000000   -0.000000   -0.000000
         Rot=    1.000000    0.000000    0.000000    0.000000 Ang=   0.00 deg.
 Requested convergence on RMS density matrix=1.00D-08 within 128 cycles.
 Requested convergence on MAX density matrix=1.00D-06.
 Requested convergence on             energy=1.00D-06.
 No special actions if energy rises.
 Inv3:  Mode=1 IEnd=    14022732.
 Iteration    1 A*A^-1 deviation from unit magnitude is 4.88D-15 for   2162.
 Iteration    1 A*A^-1 deviation from orthogonality  is 2.08D-15 for   2149   2051.
 Iteration    1 A^-1*A deviation from unit magnitude is 4.44D-15 for   2162.
 Iteration    1 A^-1*A deviation from orthogonality  is 1.77D-15 for   1602    721.
 Error on total polarization charges =  0.01717
 SCF Done:  E(RM062X) =  -611.561551763     A.U. after   13 cycles
            NFock= 13  Conv=0.65D-08     -V/T= 2.0055
 DoSCS=F DFT=T ScalE2(SS,OS)=  1.000000  1.000000
 Range of M.O.s used for correlation:     1   619
 NBasis=   619 NAE=    52 NBE=    52 NFC=     0 NFV=     0
 NROrb=    619 NOA=    52 NOB=    52 NVA=   567 NVB=   567

 **** Warning!!: The largest alpha MO coefficient is  0.62498987D+02

 NEqPCM:  Using equilibrium solvation (IEInf=0, Eps=   7.4257, EpsInf=   1.9740)
          Differentiating once with respect to electric field.
                with respect to dipole field.
          Electric field/nuclear overlap derivatives assumed to be zero.
          There are     3 degrees of freedom in the 1st order CPHF.  IDoFFX=0 NUNeed=     3.
      3 vectors produced by pass  0 Test12= 9.83D-13 3.33D-08 XBig12= 6.21D+02 2.26D+01.
 AX will form     3 AO Fock derivatives at one time.
      3 vectors produced by pass  1 Test12= 9.83D-13 3.33D-08 XBig12= 6.76D+01 1.61D+00.
      3 vectors produced by pass  2 Test12= 9.83D-13 3.33D-08 XBig12= 1.81D+01 1.38D+00.
      3 vectors produced by pass  3 Test12= 9.83D-13 3.33D-08 XBig12= 3.29D+00 6.38D-01.
      3 vectors produced by pass  4 Test12= 9.83D-13 3.33D-08 XBig12= 1.27D+00 3.26D-01.
      3 vectors produced by pass  5 Test12= 9.83D-13 3.33D-08 XBig12= 2.16D-01 8.70D-02.
      3 vectors produced by pass  6 Test12= 9.83D-13 3.33D-08 XBig12= 6.36D-02 7.06D-02.
      3 vectors produced by pass  7 Test12= 9.83D-13 3.33D-08 XBig12= 5.04D-03 1.51D-02.
      3 vectors produced by pass  8 Test12= 9.83D-13 3.33D-08 XBig12= 1.76D-03 1.32D-02.
      3 vectors produced by pass  9 Test12= 9.83D-13 3.33D-08 XBig12= 3.35D-04 6.11D-03.
      3 vectors produced by pass 10 Test12= 9.83D-13 3.33D-08 XBig12= 5.43D-05 2.01D-03.
      3 vectors produced by pass 11 Test12= 9.83D-13 3.33D-08 XBig12= 9.65D-06 6.24D-04.
      3 vectors produced by pass 12 Test12= 9.83D-13 3.33D-08 XBig12= 1.39D-06 2.92D-04.
      3 vectors produced by pass 13 Test12= 9.83D-13 3.33D-08 XBig12= 4.30D-08 3.07D-05.
      3 vectors produced by pass 14 Test12= 9.83D-13 3.33D-08 XBig12= 4.23D-09 1.20D-05.
      2 vectors produced by pass 15 Test12= 9.83D-13 3.33D-08 XBig12= 7.00D-10 5.91D-06.
      2 vectors produced by pass 16 Test12= 9.83D-13 3.33D-08 XBig12= 6.23D-11 1.66D-06.
      2 vectors produced by pass 17 Test12= 9.83D-13 3.33D-08 XBig12= 2.63D-12 5.40D-07.
      1 vectors produced by pass 18 Test12= 9.83D-13 3.33D-08 XBig12= 1.16D-13 8.17D-08.
 InvSVY:  IOpt=1 It=  1 EMax= 3.55D-15
 Solved reduced A of dimension    52 with     3 vectors.
 Isotropic polarizability for W=    0.000000      372.11 Bohr**3.
 End of Minotr F.D. properties file   721 does not exist.
 End of Minotr F.D. properties file   722 does not exist.
 End of Minotr F.D. properties file   788 does not exist.

 **********************************************************************

            Population analysis using the SCF Density.

 **********************************************************************

 Orbital symmetries:
       Occupied  (A) (A) (A) (A) (A) (A) (A) (A) (A) (A) (A) (A)
                 (A) (A) (A) (A) (A) (A) (A) (A) (A) (A) (A) (A)
                 (A) (A) (A) (A) (A) (A) (A) (A) (A) (A) (A) (A)
                 (A) (A) (A) (A) (A) (A) (A) (A) (A) (A) (A) (A)
                 (A) (A) (A) (A)
       Virtual   (A) (A) (A) (A) (A) (A) (A) (A) (A) (A) (A) (A)
                 (A) (A) (A) (A) (A) (A) (A) (A) (A) (A) (A) (A)
                 (A) (A) (A) (A) (A) (A) (A) (A) (A) (A) (A) (A)
                 (A) (A) (A) (A) (A) (A) (A) (A) (A) (A) (A) (A)
                 (A) (A) (A) (A) (A) (A) (A) (A) (A) (A) (A) (A)
                 (A) (A) (A) (A) (A) (A) (A) (A) (A) (A) (A) (A)
                 (A) (A) (A) (A) (A) (A) (A) (A) (A) (A) (A) (A)
                 (A) (A) (A) (A) (A) (A) (A) (A) (A) (A) (A) (A)
                 (A) (A) (A) (A) (A) (A) (A) (A) (A) (A) (A) (A)
                 (A) (A) (A) (A) (A) (A) (A) (A) (A) (A) (A) (A)
                 (A) (A) (A) (A) (A) (A) (A) (A) (A) (A) (A) (A)
                 (A) (A) (A) (A) (A) (A) (A) (A) (A) (A) (A) (A)
                 (A) (A) (A) (A) (A) (A) (A) (A) (A) (A) (A) (A)
                 (A) (A) (A) (A) (A) (A) (A) (A) (A) (A) (A) (A)
                 (A) (A) (A) (A) (A) (A) (A) (A) (A) (A) (A) (A)
                 (A) (A) (A) (A) (A) (A) (A) (A) (A) (A) (A) (A)
                 (A) (A) (A) (A) (A) (A) (A) (A) (A) (A) (A) (A)
                 (A) (A) (A) (A) (A) (A) (A) (A) (A) (A) (A) (A)
                 (A) (A) (A) (A) (A) (A) (A) (A) (A) (A) (A) (A)
                 (A) (A) (A) (A) (A) (A) (A) (A) (A) (A) (A) (A)
                 (A) (A) (A) (A) (A) (A) (A) (A) (A) (A) (A) (A)
                 (A) (A) (A) (A) (A) (A) (A) (A) (A) (A) (A) (A)
                 (A) (A) (A) (A) (A) (A) (A) (A) (A) (A) (A) (A)
                 (A) (A) (A) (A) (A) (A) (A) (A) (A) (A) (A) (A)
                 (A) (A) (A) (A) (A) (A) (A) (A) (A) (A) (A) (A)
                 (A) (A) (A) (A) (A) (A) (A) (A) (A) (A) (A) (A)
                 (A) (A) (A) (A) (A) (A) (A) (A) (A) (A) (A) (A)
                 (A) (A) (A) (A) (A) (A) (A) (A) (A) (A) (A) (A)
                 (A) (A) (A) (A) (A) (A) (A) (A) (A) (A) (A) (A)
                 (A) (A) (A) (A) (A) (A) (A) (A) (A) (A) (A) (A)
                 (A) (A) (A) (A) (A) (A) (A) (A) (A) (A) (A) (A)
                 (A) (A) (A) (A) (A) (A) (A) (A) (A) (A) (A) (A)
                 (A) (A) (A) (A) (A) (A) (A) (A) (A) (A) (A) (A)
                 (A) (A) (A) (A) (A) (A) (A) (A) (A) (A) (A) (A)
                 (A) (A) (A) (A) (A) (A) (A) (A) (A) (A) (A) (A)
                 (A) (A) (A) (A) (A) (A) (A) (A) (A) (A) (A) (A)
                 (A) (A) (A) (A) (A) (A) (A) (A) (A) (A) (A) (A)
                 (A) (A) (A) (A) (A) (A) (A) (A) (A) (A) (A) (A)
                 (A) (A) (A) (A) (A) (A) (A) (A) (A) (A) (A) (A)
                 (A) (A) (A) (A) (A) (A) (A) (A) (A) (A) (A) (A)
                 (A) (A) (A) (A) (A) (A) (A) (A) (A) (A) (A) (A)
                 (A) (A) (A) (A) (A) (A) (A) (A) (A) (A) (A) (A)
                 (A) (A) (A) (A) (A) (A) (A) (A) (A) (A) (A) (A)
                 (A) (A) (A) (A) (A) (A) (A) (A) (A) (A) (A) (A)
                 (A) (A) (A) (A) (A) (A) (A) (A) (A) (A) (A) (A)
                 (A) (A) (A) (A) (A) (A) (A) (A) (A) (A) (A) (A)
                 (A) (A) (A) (A) (A) (A) (A) (A) (A) (A) (A) (A)
                 (A) (A) (A)
 The electronic state is 1-A.
 Alpha  occ. eigenvalues --  -14.71135 -14.70632 -10.54525 -10.54412 -10.52719
 Alpha  occ. eigenvalues --  -10.52212 -10.52075 -10.51995 -10.51283 -10.51276
 Alpha  occ. eigenvalues --  -10.50916 -10.50884 -10.50809 -10.50793 -10.49896
 Alpha  occ. eigenvalues --   -1.01726  -0.99045  -0.92906  -0.86544  -0.84421
 Alpha  occ. eigenvalues --   -0.81961  -0.81339  -0.74301  -0.68965  -0.67335
 Alpha  occ. eigenvalues --   -0.65988  -0.63679  -0.59685  -0.55793  -0.55371
 Alpha  occ. eigenvalues --   -0.52758  -0.51280  -0.49394  -0.48746  -0.46859
 Alpha  occ. eigenvalues --   -0.45998  -0.45599  -0.44988  -0.44380  -0.42640
 Alpha  occ. eigenvalues --   -0.42171  -0.39534  -0.39016  -0.37654  -0.36770
 Alpha  occ. eigenvalues --   -0.31942  -0.30765  -0.29367  -0.28643  -0.28100
 Alpha  occ. eigenvalues --   -0.27171  -0.15555
 Alpha virt. eigenvalues --    0.00767   0.03973   0.04576   0.08183   0.10439
 Alpha virt. eigenvalues --    0.11098   0.12309   0.12720   0.13301   0.13596
 Alpha virt. eigenvalues --    0.14613   0.14909   0.15853   0.16055   0.16477
 Alpha virt. eigenvalues --    0.17291   0.19428   0.19955   0.20532   0.22077
 Alpha virt. eigenvalues --    0.22574   0.23275   0.25007   0.25033   0.25345
 Alpha virt. eigenvalues --    0.25581   0.26016   0.26727   0.27514   0.27943
 Alpha virt. eigenvalues --    0.28934   0.29945   0.29996   0.30260   0.31124
 Alpha virt. eigenvalues --    0.31435   0.31576   0.32202   0.34181   0.34639
 Alpha virt. eigenvalues --    0.35363   0.36077   0.36640   0.37261   0.37323
 Alpha virt. eigenvalues --    0.37780   0.38403   0.38759   0.40131   0.40525
 Alpha virt. eigenvalues --    0.40676   0.41363   0.41974   0.43068   0.43380
 Alpha virt. eigenvalues --    0.44018   0.45394   0.45849   0.46396   0.46606
 Alpha virt. eigenvalues --    0.47264   0.48040   0.48178   0.48520   0.50158
 Alpha virt. eigenvalues --    0.50462   0.50867   0.51548   0.51669   0.52448
 Alpha virt. eigenvalues --    0.52993   0.54672   0.54834   0.55684   0.56024
 Alpha virt. eigenvalues --    0.56095   0.56937   0.57833   0.58327   0.59602
 Alpha virt. eigenvalues --    0.59939   0.61514   0.62349   0.64252   0.67200
 Alpha virt. eigenvalues --    0.67691   0.68152   0.68350   0.68792   0.69311
 Alpha virt. eigenvalues --    0.70024   0.71044   0.72264   0.72861   0.73054
 Alpha virt. eigenvalues --    0.73396   0.74980   0.74988   0.75539   0.76104
 Alpha virt. eigenvalues --    0.76799   0.77159   0.78241   0.78515   0.79155
 Alpha virt. eigenvalues --    0.79965   0.80398   0.81315   0.81351   0.82280
 Alpha virt. eigenvalues --    0.83173   0.83813   0.83838   0.84863   0.88597
 Alpha virt. eigenvalues --    0.88638   0.89219   0.89480   0.90523   0.90811
 Alpha virt. eigenvalues --    0.91599   0.93950   0.95882   0.96207   0.96365
 Alpha virt. eigenvalues --    0.98204   1.00935   1.01395   1.02256   1.02309
 Alpha virt. eigenvalues --    1.03301   1.03544   1.04505   1.04879   1.05851
 Alpha virt. eigenvalues --    1.05904   1.06638   1.09348   1.10041   1.12235
 Alpha virt. eigenvalues --    1.12754   1.13417   1.13830   1.14435   1.15644
 Alpha virt. eigenvalues --    1.16638   1.17984   1.19095   1.20330   1.20514
 Alpha virt. eigenvalues --    1.22857   1.23176   1.24065   1.25315   1.26479
 Alpha virt. eigenvalues --    1.26575   1.27243   1.28698   1.29077   1.29755
 Alpha virt. eigenvalues --    1.31959   1.32407   1.33283   1.34595   1.34943
 Alpha virt. eigenvalues --    1.35911   1.36606   1.37784   1.38146   1.38978
 Alpha virt. eigenvalues --    1.39204   1.39438   1.39946   1.41205   1.41487
 Alpha virt. eigenvalues --    1.43116   1.43188   1.44356   1.45608   1.47014
 Alpha virt. eigenvalues --    1.47095   1.47330   1.49723   1.49736   1.51135
 Alpha virt. eigenvalues --    1.52209   1.54049   1.54755   1.55142   1.56900
 Alpha virt. eigenvalues --    1.57996   1.58421   1.58800   1.59294   1.59754
 Alpha virt. eigenvalues --    1.60810   1.61312   1.61754   1.62831   1.65761
 Alpha virt. eigenvalues --    1.65800   1.66949   1.67977   1.70024   1.70184
 Alpha virt. eigenvalues --    1.72848   1.72881   1.73731   1.74012   1.75104
 Alpha virt. eigenvalues --    1.76441   1.77601   1.78475   1.79944   1.80270
 Alpha virt. eigenvalues --    1.80554   1.83315   1.84535   1.84925   1.85927
 Alpha virt. eigenvalues --    1.88385   1.88419   1.90137   1.91834   1.92626
 Alpha virt. eigenvalues --    1.93467   1.95235   1.95987   1.97711   1.99944
 Alpha virt. eigenvalues --    2.00027   2.01722   2.02361   2.02866   2.04879
 Alpha virt. eigenvalues --    2.06433   2.07063   2.09471   2.09847   2.12325
 Alpha virt. eigenvalues --    2.13127   2.15038   2.19384   2.20725   2.25562
 Alpha virt. eigenvalues --    2.27046   2.29684   2.30102   2.32285   2.32693
 Alpha virt. eigenvalues --    2.33213   2.34453   2.35670   2.39702   2.41069
 Alpha virt. eigenvalues --    2.41601   2.41717   2.42878   2.44785   2.46649
 Alpha virt. eigenvalues --    2.47044   2.48011   2.52174   2.52268   2.55035
 Alpha virt. eigenvalues --    2.56373   2.59325   2.59710   2.64912   2.67595
 Alpha virt. eigenvalues --    2.67605   2.68522   2.70736   2.71794   2.71899
 Alpha virt. eigenvalues --    2.73034   2.74004   2.74033   2.75084   2.77027
 Alpha virt. eigenvalues --    2.77730   2.79078   2.79806   2.79971   2.81019
 Alpha virt. eigenvalues --    2.82020   2.82263   2.82708   2.83990   2.85061
 Alpha virt. eigenvalues --    2.86343   2.86929   2.88791   2.90624   2.91471
 Alpha virt. eigenvalues --    2.92944   2.93356   2.94252   2.94578   2.95442
 Alpha virt. eigenvalues --    2.95857   2.97336   2.99870   3.00332   3.01239
 Alpha virt. eigenvalues --    3.01570   3.01599   3.01946   3.02368   3.02717
 Alpha virt. eigenvalues --    3.03664   3.03943   3.05440   3.05526   3.05825
 Alpha virt. eigenvalues --    3.06045   3.06199   3.08494   3.09029   3.09739
 Alpha virt. eigenvalues --    3.10789   3.11741   3.12845   3.13450   3.15022
 Alpha virt. eigenvalues --    3.15397   3.16057   3.17472   3.18120   3.18139
 Alpha virt. eigenvalues --    3.19233   3.19608   3.20710   3.21399   3.22586
 Alpha virt. eigenvalues --    3.23584   3.23660   3.23839   3.24107   3.24795
 Alpha virt. eigenvalues --    3.26129   3.27022   3.27722   3.27971   3.29539
 Alpha virt. eigenvalues --    3.31442   3.32223   3.33113   3.33325   3.33795
 Alpha virt. eigenvalues --    3.34211   3.35002   3.36594   3.37883   3.38504
 Alpha virt. eigenvalues --    3.38524   3.39291   3.40245   3.40440   3.40667
 Alpha virt. eigenvalues --    3.42183   3.42995   3.43557   3.45112   3.45190
 Alpha virt. eigenvalues --    3.47632   3.48624   3.49166   3.50286   3.50302
 Alpha virt. eigenvalues --    3.50703   3.52401   3.53914   3.54164   3.55526
 Alpha virt. eigenvalues --    3.56663   3.57409   3.57546   3.60285   3.60991
 Alpha virt. eigenvalues --    3.61893   3.63687   3.64010   3.65219   3.65790
 Alpha virt. eigenvalues --    3.67526   3.69158   3.69265   3.70435   3.71126
 Alpha virt. eigenvalues --    3.73546   3.74546   3.74810   3.76033   3.77072
 Alpha virt. eigenvalues --    3.77750   3.79798   3.80023   3.80308   3.80936
 Alpha virt. eigenvalues --    3.81814   3.81919   3.82399   3.82921   3.83036
 Alpha virt. eigenvalues --    3.83655   3.85029   3.86478   3.86697   3.87432
 Alpha virt. eigenvalues --    3.87995   3.89315   3.90370   3.90828   3.93101
 Alpha virt. eigenvalues --    3.94226   3.94306   3.95502   3.95678   3.97355
 Alpha virt. eigenvalues --    3.98161   3.99175   4.01570   4.02531   4.03131
 Alpha virt. eigenvalues --    4.05645   4.06122   4.06800   4.07593   4.10929
 Alpha virt. eigenvalues --    4.11957   4.13037   4.13107   4.14766   4.15467
 Alpha virt. eigenvalues --    4.16102   4.16592   4.18160   4.18864   4.19117
 Alpha virt. eigenvalues --    4.20284   4.22531   4.23418   4.24540   4.24653
 Alpha virt. eigenvalues --    4.25711   4.26486   4.27820   4.28332   4.28792
 Alpha virt. eigenvalues --    4.29006   4.29899   4.31869   4.32514   4.34395
 Alpha virt. eigenvalues --    4.35202   4.37365   4.38893   4.41126   4.41822
 Alpha virt. eigenvalues --    4.43755   4.46961   4.47599   4.47844   4.48605
 Alpha virt. eigenvalues --    4.50314   4.55010   4.55194   4.56313   4.57136
 Alpha virt. eigenvalues --    4.59140   4.61027   4.62163   4.63037   4.64412
 Alpha virt. eigenvalues --    4.66715   4.66944   4.69305   4.69928   4.69930
 Alpha virt. eigenvalues --    4.72277   4.73724   4.75247   4.77670   4.77753
 Alpha virt. eigenvalues --    4.80445   4.81454   4.86577   4.87329   4.87330
 Alpha virt. eigenvalues --    4.90785   4.90861   4.91298   4.92533   4.94372
 Alpha virt. eigenvalues --    4.95738   4.96628   4.98877   4.99120   5.01266
 Alpha virt. eigenvalues --    5.01490   5.03448   5.04616   5.05041   5.09264
 Alpha virt. eigenvalues --    5.10724   5.13831   5.14191   5.15724   5.16471
 Alpha virt. eigenvalues --    5.17814   5.20173   5.22081   5.24025   5.24760
 Alpha virt. eigenvalues --    5.25301   5.27527   5.29302   5.30118   5.30721
 Alpha virt. eigenvalues --    5.33055   5.33743   5.36767   5.38293   5.39853
 Alpha virt. eigenvalues --    5.41875   5.42094   5.42888   5.43990   5.49518
 Alpha virt. eigenvalues --    5.52689   5.59412   5.60091   5.62026   5.64162
 Alpha virt. eigenvalues --    5.66476   5.67459   5.72604   5.74631   5.80171
 Alpha virt. eigenvalues --    5.84536   5.89228   5.94002   5.98309   5.98986
 Alpha virt. eigenvalues --    6.02569   6.10207   6.12683   6.16015   6.44634
 Alpha virt. eigenvalues --    6.64332   6.79386  22.84458  23.02925  23.17662
 Alpha virt. eigenvalues --   23.20900  23.22749  23.27726  23.28499  23.38532
 Alpha virt. eigenvalues --   23.41536  23.52250  23.55441  23.76976  24.12722
 Alpha virt. eigenvalues --   32.78458  32.96297
          Condensed to atoms (all electrons):
               1          2          3          4          5          6
     1  C    5.246420   0.351879  -0.173130   0.004009   0.003914  -0.003194
     2  C    0.351879   5.061991   0.591353  -0.208045  -0.000627   0.005063
     3  N   -0.173130   0.591353   6.395979   0.600162  -0.137563   0.025954
     4  C    0.004009  -0.208045   0.600162   5.070501   0.387640  -0.070593
     5  C    0.003914  -0.000627  -0.137563   0.387640   5.181582   0.295840
     6  C   -0.003194   0.005063   0.025954  -0.070593   0.295840   5.175592
     7  C   -0.000087   0.000005   0.001070   0.002344  -0.063851   0.540904
     8  C   -0.000011  -0.000004   0.000182  -0.001005  -0.041098  -0.057504
     9  C    0.000008  -0.000005  -0.000188   0.002744  -0.063681  -0.051981
    10  C   -0.000219   0.000081   0.003516  -0.105963   0.508529  -0.029347
    11  N    0.451542  -0.073837   0.003518   0.000351   0.000038  -0.000009
    12  C   -0.121335   0.004343  -0.001000   0.000035   0.000032  -0.000006
    13  C   -0.017290   0.006602   0.000755   0.000006  -0.000023   0.000008
    14  C   -0.055677   0.002394  -0.000566  -0.000103   0.000013  -0.000012
    15  C    0.276226   0.003640   0.037122   0.002114  -0.001767   0.000417
    16  H   -0.125645   0.447231  -0.055658  -0.007317  -0.005233   0.001863
    17  H   -0.006645  -0.003888  -0.063547   0.433605  -0.092204   0.030430
    18  H   -0.001621   0.001190   0.013720  -0.007459  -0.022993   0.403834
    19  H    0.000002  -0.000001  -0.000044  -0.000229   0.003236  -0.025720
    20  H   -0.000000   0.000000  -0.000001   0.000156   0.000639   0.002475
    21  H    0.000000  -0.000000   0.000010  -0.000162   0.004439  -0.000188
    22  H   -0.000029  -0.000005  -0.000233  -0.002003  -0.029634   0.010742
    23  H    0.003457  -0.001936   0.000010  -0.000003  -0.000000   0.000000
    24  H   -0.004494  -0.000334   0.000002   0.000001  -0.000000   0.000000
    25  H    0.005633   0.000353  -0.000096  -0.000009   0.000007  -0.000003
    26  H   -0.001935  -0.024962   0.012893   0.002581  -0.002553   0.000833
               7          8          9         10         11         12
     1  C   -0.000087  -0.000011   0.000008  -0.000219   0.451542  -0.121335
     2  C    0.000005  -0.000004  -0.000005   0.000081  -0.073837   0.004343
     3  N    0.001070   0.000182  -0.000188   0.003516   0.003518  -0.001000
     4  C    0.002344  -0.001005   0.002744  -0.105963   0.000351   0.000035
     5  C   -0.063851  -0.041098  -0.063681   0.508529   0.000038   0.000032
     6  C    0.540904  -0.057504  -0.051981  -0.029347  -0.000009  -0.000006
     7  C    4.880547   0.508129  -0.065023  -0.036332  -0.000000   0.000000
     8  C    0.508129   4.991164   0.524557  -0.077486   0.000000  -0.000000
     9  C   -0.065023   0.524557   4.879252   0.557595   0.000000   0.000000
    10  C   -0.036332  -0.077486   0.557595   5.007189   0.000000   0.000000
    11  N   -0.000000   0.000000   0.000000   0.000000   6.602411   0.578885
    12  C    0.000000  -0.000000   0.000000   0.000000   0.578885   4.771184
    13  C    0.000000   0.000000  -0.000000   0.000000  -0.117740   0.508274
    14  C    0.000003   0.000000   0.000000  -0.000000  -0.031306  -0.070686
    15  C    0.000010   0.000006  -0.000004   0.000051  -0.085550  -0.024055
    16  H    0.000014   0.000004  -0.000008  -0.000112   0.010130   0.001145
    17  H   -0.001030   0.000452  -0.001065  -0.009704  -0.000258  -0.000044
    18  H   -0.014943   0.001972   0.000655   0.002583  -0.000003  -0.000002
    19  H    0.410017  -0.025583   0.002228   0.000880  -0.000000   0.000000
    20  H   -0.026036   0.416659  -0.026288   0.002771  -0.000000  -0.000000
    21  H    0.003328  -0.027705   0.414402  -0.028978  -0.000000   0.000000
    22  H   -0.000884   0.003451  -0.023134   0.401578   0.000000   0.000000
    23  H   -0.000000   0.000000  -0.000000  -0.000000  -0.024975   0.435725
    24  H    0.000000   0.000000   0.000000  -0.000000   0.008944  -0.021132
    25  H   -0.000000  -0.000000   0.000000   0.000000  -0.001500   0.002966
    26  H   -0.000012   0.000008  -0.000003  -0.000014   0.010568  -0.001573
              13         14         15         16         17         18
     1  C   -0.017290  -0.055677   0.276226  -0.125645  -0.006645  -0.001621
     2  C    0.006602   0.002394   0.003640   0.447231  -0.003888   0.001190
     3  N    0.000755  -0.000566   0.037122  -0.055658  -0.063547   0.013720
     4  C    0.000006  -0.000103   0.002114  -0.007317   0.433605  -0.007459
     5  C   -0.000023   0.000013  -0.001767  -0.005233  -0.092204  -0.022993
     6  C    0.000008  -0.000012   0.000417   0.001863   0.030430   0.403834
     7  C    0.000000   0.000003   0.000010   0.000014  -0.001030  -0.014943
     8  C    0.000000   0.000000   0.000006   0.000004   0.000452   0.001972
     9  C   -0.000000   0.000000  -0.000004  -0.000008  -0.001065   0.000655
    10  C    0.000000  -0.000000   0.000051  -0.000112  -0.009704   0.002583
    11  N   -0.117740  -0.031306  -0.085550   0.010130  -0.000258  -0.000003
    12  C    0.508274  -0.070686  -0.024055   0.001145  -0.000044  -0.000002
    13  C    5.147036   0.464640  -0.078459   0.000925   0.000013   0.000008
    14  C    0.464640   4.900538   0.545973  -0.000734  -0.000018   0.000023
    15  C   -0.078459   0.545973   5.174700   0.032986   0.002029   0.000552
    16  H    0.000925  -0.000734   0.032986   0.642701   0.024779   0.000210
    17  H    0.000013  -0.000018   0.002029   0.024779   0.650515   0.000945
    18  H    0.000008   0.000023   0.000552   0.000210   0.000945   0.478798
    19  H   -0.000000  -0.000000  -0.000000  -0.000000   0.000007  -0.002403
    20  H    0.000000   0.000000   0.000000   0.000000   0.000002  -0.000299
    21  H   -0.000000   0.000000  -0.000000  -0.000000  -0.000015   0.000076
    22  H    0.000000   0.000000   0.000006   0.000099   0.008189  -0.000240
    23  H   -0.075753   0.003082  -0.000469  -0.000269   0.000000  -0.000000
    24  H    0.413743  -0.044869   0.008968  -0.000018   0.000000  -0.000000
    25  H   -0.032639   0.428907  -0.032996   0.000018  -0.000001  -0.000003
    26  H    0.006909  -0.034506   0.395119  -0.000262   0.000281   0.001276
              19         20         21         22         23         24
     1  C    0.000002  -0.000000   0.000000  -0.000029   0.003457  -0.004494
     2  C   -0.000001   0.000000  -0.000000  -0.000005  -0.001936  -0.000334
     3  N   -0.000044  -0.000001   0.000010  -0.000233   0.000010   0.000002
     4  C   -0.000229   0.000156  -0.000162  -0.002003  -0.000003   0.000001
     5  C    0.003236   0.000639   0.004439  -0.029634  -0.000000  -0.000000
     6  C   -0.025720   0.002475  -0.000188   0.010742   0.000000   0.000000
     7  C    0.410017  -0.026036   0.003328  -0.000884  -0.000000   0.000000
     8  C   -0.025583   0.416659  -0.027705   0.003451   0.000000   0.000000
     9  C    0.002228  -0.026288   0.414402  -0.023134  -0.000000   0.000000
    10  C    0.000880   0.002771  -0.028978   0.401578  -0.000000  -0.000000
    11  N   -0.000000  -0.000000  -0.000000   0.000000  -0.024975   0.008944
    12  C    0.000000  -0.000000   0.000000   0.000000   0.435725  -0.021132
    13  C   -0.000000   0.000000  -0.000000   0.000000  -0.075753   0.413743
    14  C   -0.000000   0.000000   0.000000   0.000000   0.003082  -0.044869
    15  C   -0.000000   0.000000  -0.000000   0.000006  -0.000469   0.008968
    16  H   -0.000000   0.000000  -0.000000   0.000099  -0.000269  -0.000018
    17  H    0.000007   0.000002  -0.000015   0.008189   0.000000   0.000000
    18  H   -0.002403  -0.000299   0.000076  -0.000240  -0.000000  -0.000000
    19  H    0.508951  -0.002197  -0.000334   0.000076  -0.000000  -0.000000
    20  H   -0.002197   0.500796  -0.002488  -0.000300   0.000000   0.000000
    21  H   -0.000334  -0.002488   0.510252  -0.003228  -0.000000   0.000000
    22  H    0.000076  -0.000300  -0.003228   0.519619  -0.000000  -0.000000
    23  H   -0.000000   0.000000  -0.000000  -0.000000   0.553632   0.000745
    24  H   -0.000000   0.000000   0.000000  -0.000000   0.000745   0.513321
    25  H    0.000000  -0.000000   0.000000   0.000000  -0.000291  -0.003421
    26  H   -0.000007   0.000000   0.000000  -0.000000   0.000164   0.000169
              25         26
     1  C    0.005633  -0.001935
     2  C    0.000353  -0.024962
     3  N   -0.000096   0.012893
     4  C   -0.000009   0.002581
     5  C    0.000007  -0.002553
     6  C   -0.000003   0.000833
     7  C   -0.000000  -0.000012
     8  C   -0.000000   0.000008
     9  C    0.000000  -0.000003
    10  C    0.000000  -0.000014
    11  N   -0.001500   0.010568
    12  C    0.002966  -0.001573
    13  C   -0.032639   0.006909
    14  C    0.428907  -0.034506
    15  C   -0.032996   0.395119
    16  H    0.000018  -0.000262
    17  H   -0.000001   0.000281
    18  H   -0.000003   0.001276
    19  H    0.000000  -0.000007
    20  H   -0.000000   0.000000
    21  H    0.000000   0.000000
    22  H    0.000000  -0.000000
    23  H   -0.000291   0.000164
    24  H   -0.003421   0.000169
    25  H    0.503889  -0.004614
    26  H   -0.004614   0.507245
 Mulliken charges:
               1
     1  C    0.168224
     2  C   -0.162483
     3  N   -0.254221
     4  C   -0.103358
     5  C    0.075319
     6  C   -0.255398
     7  C   -0.138174
     8  C   -0.216187
     9  C   -0.150062
    10  C   -0.196618
    11  N   -0.331208
    12  C   -0.062757
    13  C   -0.227015
    14  C   -0.107097
    15  C   -0.256619
    16  H    0.033152
    17  H    0.027171
    18  H    0.144125
    19  H    0.131123
    20  H    0.134111
    21  H    0.130590
    22  H    0.115930
    23  H    0.106883
    24  H    0.128374
    25  H    0.133798
    26  H    0.132396
 Sum of Mulliken charges =  -1.00000
 Mulliken charges with hydrogens summed into heavy atoms:
               1
     1  C    0.168224
     2  C   -0.129331
     3  N   -0.254221
     4  C   -0.076187
     5  C    0.075319
     6  C   -0.111273
     7  C   -0.007051
     8  C   -0.082076
     9  C   -0.019472
    10  C   -0.080688
    11  N   -0.331208
    12  C    0.044126
    13  C   -0.098641
    14  C    0.026701
    15  C   -0.124223
 Electronic spatial extent (au):  <R**2>=           5119.5801
 Charge=             -1.0000 electrons
 Dipole moment (field-independent basis, Debye):
    X=             -2.2024    Y=              2.9782    Z=             -0.0003  Tot=              3.7041
 Quadrupole moment (field-independent basis, Debye-Ang):
   XX=           -124.2254   YY=            -91.7203   ZZ=            -99.7304
   XY=              9.2312   XZ=             -0.0005   YZ=             -0.0014
 Traceless Quadrupole moment (field-independent basis, Debye-Ang):
   XX=            -19.0000   YY=             13.5051   ZZ=              5.4949
   XY=              9.2312   XZ=             -0.0005   YZ=             -0.0014
 Octapole moment (field-independent basis, Debye-Ang**2):
  XXX=            -11.6254  YYY=             18.2375  ZZZ=             -0.0001  XYY=            -17.1473
  XXY=             21.4014  XXZ=             -0.0018  XZZ=              5.2263  YZZ=             -0.8960
  YYZ=             -0.0022  XYZ=              0.0023
 Hexadecapole moment (field-independent basis, Debye-Ang**3):
 XXXX=          -6624.8565 YYYY=           -760.7994 ZZZZ=           -120.4093 XXXY=             98.7897
 XXXZ=              0.0707 YYYX=             47.9955 YYYZ=              0.0330 ZZZX=              0.0983
 ZZZY=              0.0519 XXYY=          -1210.1190 XXZZ=          -1239.5057 YYZZ=           -168.1780
 XXYZ=             -0.0066 YYXZ=              0.0206 ZZXY=             -3.0972
 N-N= 8.180320278139D+02 E-N=-3.071600676893D+03  KE= 6.081973482027D+02
 There are a total of      595776 grid points.
 ElSum from          density=      103.9999131589
 ElSum from atomic densities=      102.9998213811
 Hirshfeld populations at iteration   1 (CA, CB, DipXYZ):
               1          2          3          4          5
     1  C    2.996131   2.996131   0.038897   0.018879  -0.000009
     2  C    3.056959   3.056959  -0.032924   0.003768   0.000001
     3  N    3.582960   3.582960   0.005628  -0.135261   0.000019
     4  C    3.043823   3.043823  -0.004196  -0.012932   0.000003
     5  C    3.016478   3.016478   0.004689  -0.003975   0.000000
     6  C    3.037975   3.037975   0.034489   0.006793  -0.000002
     7  C    3.032793   3.032793  -0.008479   0.055719  -0.000007
     8  C    3.044302   3.044302  -0.038578   0.024430  -0.000003
     9  C    3.033443   3.033443  -0.049448  -0.026926   0.000005
    10  C    3.038836   3.038836   0.013991  -0.040380   0.000005
    11  N    3.616225   3.616225  -0.015674   0.278009  -0.000039
    12  C    3.008252   3.008252   0.020367  -0.018290   0.000005
    13  C    3.053197   3.053197   0.034382   0.032163  -0.000006
    14  C    3.026357   3.026357   0.020863   0.071589  -0.000010
    15  C    3.042173   3.042173  -0.041704   0.001688   0.000002
    16  H    0.503634   0.503634  -0.013117  -0.119904   0.000020
    17  H    0.498613   0.498613  -0.006029  -0.126000   0.000017
    18  H    0.489004   0.489004   0.101118   0.091921  -0.000014
    19  H    0.483367   0.483367  -0.001858   0.154629  -0.000020
    20  H    0.485496   0.485496  -0.136618   0.075195  -0.000007
    21  H    0.483173   0.483173  -0.131789  -0.081963   0.000014
    22  H    0.485987   0.485987  -0.003290  -0.149240   0.000020
    23  H    0.486746   0.486746   0.128102  -0.078212   0.000008
    24  H    0.485409   0.485409   0.141944   0.068495  -0.000010
    25  H    0.480496   0.480496   0.006567   0.155910  -0.000022
    26  H    0.488127   0.488127  -0.102837   0.092249  -0.000012
       Tot  51.999957  51.999957  -0.035505   0.338356  -0.000041

 Dip from Atomic Chgs             -0.831134   0.833416  -0.000089
         Total Dipole             -0.866638   1.171772  -0.000130

 Hirshfeld charges, spin densities, dipoles, and CM5 charges using IRadAn=      5:
              Q-H        S-H        Dx         Dy         Dz        Q-CM5   
     1  C    0.007738   0.000000   0.038897   0.018879  -0.000009   0.077166
     2  C   -0.113918   0.000000  -0.032924   0.003768   0.000001  -0.078742
     3  N   -0.165921   0.000000   0.005628  -0.135261   0.000019  -0.370498
     4  C   -0.087647   0.000000  -0.004196  -0.012932   0.000003  -0.056491
     5  C   -0.032956   0.000000   0.004689  -0.003975   0.000000  -0.038101
     6  C   -0.075951   0.000000   0.034489   0.006793  -0.000002  -0.126095
     7  C   -0.065586   0.000000  -0.008479   0.055719  -0.000007  -0.119724
     8  C   -0.088604   0.000000  -0.038578   0.024430  -0.000003  -0.143255
     9  C   -0.066887   0.000000  -0.049448  -0.026926   0.000005  -0.121202
    10  C   -0.077671   0.000000   0.013991  -0.040380   0.000005  -0.129561
    11  N   -0.232450   0.000000  -0.015674   0.278009  -0.000039  -0.418283
    12  C   -0.016504   0.000000   0.020367  -0.018290   0.000005   0.010830
    13  C   -0.106395   0.000000   0.034382   0.032163  -0.000006  -0.155717
    14  C   -0.052715   0.000000   0.020863   0.071589  -0.000010  -0.104554
    15  C   -0.084346   0.000000  -0.041704   0.001688   0.000002  -0.129189
    16  H   -0.007267   0.000000  -0.013117  -0.119904   0.000020   0.059473
    17  H    0.002775   0.000000  -0.006029  -0.126000   0.000017   0.066539
    18  H    0.021992   0.000000   0.101118   0.091921  -0.000014   0.081754
    19  H    0.033265   0.000000  -0.001858   0.154629  -0.000020   0.087872
    20  H    0.029009   0.000000  -0.136618   0.075195  -0.000007   0.083532
    21  H    0.033655   0.000000  -0.131789  -0.081963   0.000014   0.088225
    22  H    0.028026   0.000000  -0.003290  -0.149240   0.000020   0.083533
    23  H    0.026507   0.000000   0.128102  -0.078212   0.000008   0.090859
    24  H    0.029182   0.000000   0.141944   0.068495  -0.000010   0.084065
    25  H    0.039008   0.000000   0.006567   0.155910  -0.000022   0.093579
    26  H    0.023745   0.000000  -0.102837   0.092249  -0.000012   0.084070
       Tot  -0.999913   0.000000  -0.035505   0.338356  -0.000041  -0.999913
 Hirshfeld charges with hydrogens summed into heavy atoms:
              Q-H       Q-CM5   
     1  C    0.007738   0.077166
     2  C   -0.121185  -0.019269
     3  N   -0.165921  -0.370498
     4  C   -0.084872   0.010048
     5  C   -0.032956  -0.038101
     6  C   -0.053959  -0.044341
     7  C   -0.032320  -0.031852
     8  C   -0.059595  -0.059723
     9  C   -0.033232  -0.032977
    10  C   -0.049645  -0.046027
    11  N   -0.232450  -0.418283
    12  C    0.010004   0.101689
    13  C   -0.077213  -0.071651
    14  C   -0.013706  -0.010975
    15  C   -0.060601  -0.045119
 
 EQQ=  0.00000000000     EQD=  0.00000000000     EDD= 0.863815976830E-02
 EQQ+QD+DD= 0.863815976830E-02
 
  Exact polarizability:     753.950      11.753     241.580      -0.018      -0.017     120.791
 Approx polarizability:     536.083       7.423     245.190      -0.011      -0.016     131.589
 Breneman (CHELPG) radii used.
 Read replacement radii for each type of atom:
 Atom Element Radius
    1     6    1.50
    2     6    1.50
    3     7    1.70
    4     6    1.50
    5     6    1.50
    6     6    1.50
    7     6    1.50
    8     6    1.50
    9     6    1.50
   10     6    1.50
   11     7    1.70
   12     6    1.50
   13     6    1.50
   14     6    1.50
   15     6    1.50
   16     1    1.45
   17     1    1.45
   18     1    1.45
   19     1    1.45
   20     1    1.45
   21     1    1.45
   22     1    1.45
   23     1    1.45
   24     1    1.45
   25     1    1.45
   26     1    1.45
 Generate Potential Derived Charges using the Breneman model, NDens= 1.
 Grid spacing= 0.300 Box extension= 2.800
 NStep X,Y,Z=   59     37     20   Total possible points=       43660
 Number of Points to Fit=   17105

 **********************************************************************

            Electrostatic Properties Using The SCF Density.

 **********************************************************************

       Atomic Center    1 is at   2.427566 -0.447998 -0.000038
       Atomic Center    2 is at   1.188022 -1.157646  0.000117
       Atomic Center    3 is at   0.022997 -0.531366  0.000063
       Atomic Center    4 is at  -1.131949 -1.155443  0.000182
       Atomic Center    5 is at  -2.387922 -0.451122  0.000126
       Atomic Center    6 is at  -2.460473  0.965844 -0.000053
       Atomic Center    7 is at  -3.680545  1.624951 -0.000108
       Atomic Center    8 is at  -4.889517  0.915817  0.000014
       Atomic Center    9 is at  -4.838527 -0.480744  0.000196
       Atomic Center   10 is at  -3.619799 -1.149868  0.000252
       Atomic Center   11 is at   3.579653 -1.169808  0.000067
       Atomic Center   12 is at   4.736202 -0.522747 -0.000025
       Atomic Center   13 is at   4.879863  0.864558 -0.000232
       Atomic Center   14 is at   3.694750  1.621406 -0.000330
       Atomic Center   15 is at   2.475656  0.979653 -0.000227
       Atomic Center   16 is at   1.254166 -2.257734  0.000286
       Atomic Center   17 is at  -1.173519 -2.260250  0.000331
       Atomic Center   18 is at  -1.519539  1.517652 -0.000149
       Atomic Center   19 is at  -3.696048  2.718495 -0.000249
       Atomic Center   20 is at  -5.846481  1.440728 -0.000032
       Atomic Center   21 is at  -5.767051 -1.058495  0.000296
       Atomic Center   22 is at  -3.599897 -2.243314  0.000396
       Atomic Center   23 is at   5.636297 -1.153585  0.000048
       Atomic Center   24 is at   5.866481  1.328914 -0.000303
       Atomic Center   25 is at   3.736919  2.714533 -0.000484
       Atomic Center   26 is at   1.530159  1.521296 -0.000291
 Evaluate density.
 Using the total density.
 Monte-Carlo method of calculating molar volume:
 based on  0.001 e/bohr**3 density envelope.
 Number of points per bohr**3 =   20 CutOff= 1.00D-04
 Using the SCF density.
 There are       391 points.  Will hold       391 in memory.
 LenV=  6441732970 MDV=  6442450944.
 Box volume = 7499.452 fraction occupied=0.263
 Integrated density= 1.3106147031912639D+02 error= 2.7061470319126386D+01
 Molar volume = 1975.559 bohr**3/mol (176.297 cm**3/mol)
 Recommended a0 for SCRF calculation =  5.03 angstrom (  9.51 bohr)
 Running external command "gaunbo7 R"
         input file       "/scratch/general/vast/u6067110/GAUSSSCRDIR/10754890-notchpeak.peaks/Gau-998918.EIn"
         output file      "/scratch/general/vast/u6067110/GAUSSSCRDIR/10754890-notchpeak.peaks/Gau-998918.EOu"
         message file     "/scratch/general/vast/u6067110/GAUSSSCRDIR/10754890-notchpeak.peaks/Gau-998918.EMs"
         fchk file        "/scratch/general/vast/u6067110/GAUSSSCRDIR/10754890-notchpeak.peaks/Gau-998918.EFC"
         mat. el file     "/scratch/general/vast/u6067110/GAUSSSCRDIR/10754890-notchpeak.peaks/Gau-998918.EUF"

 Writing WrtUnf unformatted file "/scratch/general/vast/u6067110/GAUSSSCRDIR/10754890-notchpeak.peaks/Gau-998918.EUF"
 Gaussian matrix elements                                         Version   2 NLab=11 Len12L=8 Len4L=8
 Write SHELL TO ATOM MAP                   from file      0 offset           0 length                 231 to matrix element file.
 Write SHELL TYPES                         from file      0 offset           0 length                 231 to matrix element file.
 Write NUMBER OF PRIMITIVES PER SHELL      from file      0 offset           0 length                 231 to matrix element file.
 Write PRIMITIVE EXPONENTS                 from file      0 offset           0 length                 388 to matrix element file.
 Write CONTRACTION COEFFICIENTS            from file      0 offset           0 length                 388 to matrix element file.
 Write P(S=P) CONTRACTION COEFFICIENTS     from file      0 offset           0 length                 388 to matrix element file.
 Write COORDINATES OF EACH SHELL           from file      0 offset           0 length                 693 to matrix element file.
 Write BONDS PER ATOM                      from file      0 offset           0 length                  26 to matrix element file.
 Write BONDED ATOMS                        from file      0 offset           0 length                  54 to matrix element file.
 Write BOND TYPES                          from file      0 offset           0 length                  54 to matrix element file.
 Write ONIOM CHARGE/MULT                   from file      0 offset           0 length                  32 to matrix element file.
 Write ONIOM ATOM LAYERS                   from file      0 offset           0 length                  26 to matrix element file.
 Write ONIOM ATOM MODIFIERS                from file      0 offset           0 length                  26 to matrix element file.
 Write ONIOM ATOM TYPES                    from file      0 offset           0 length                  26 to matrix element file.
 Write ONIOM LINK ATOMS                    from file      0 offset           0 length                  26 to matrix element file.
 Write ONIOM LINK CHARGES                  from file      0 offset           0 length                  26 to matrix element file.
 Write ONIOM LINK DISTANCES                from file      0 offset           0 length                 104 to matrix element file.
 Write SYMINF INTS                         from file      0 offset           0 length                  26 to matrix element file.
 Write ROTTR TO SO                         from file      0 offset           0 length                  12 to matrix element file.
 Write GAUSSIAN SCALARS                    from file    501 offset           0 to matrix element file.
 Write OPTIMIZATION FLAGS                  from file      0 offset           0 length                  26 to matrix element file.
 Write INTEGER ISO                         from file      0 offset           0 length                  26 to matrix element file.
 Write INTEGER SPIN                        from file      0 offset           0 length                  26 to matrix element file.
 Write REAL ZEFFECTIVE                     from file      0 offset           0 length                  26 to matrix element file.
 Write REAL QUADRUPOLEMOMENT               from file      0 offset           0 length                  26 to matrix element file.
 Write REAL GFACTOR                        from file      0 offset           0 length                  26 to matrix element file.
 Write REAL ZNUCLEAR                       from file      0 offset           0 length                  26 to matrix element file.
 Write MULLIKEN CHARGES                    from file      0 offset           0 length                  26 to matrix element file.
 Write TYPE 6 CHARGES                      from file      0 offset           0 length                  26 to matrix element file.
 Write TYPE 7 CHARGES                      from file      0 offset           0 length                  26 to matrix element file.
 Write NUCLEAR GRADIENT                    from file  10584 offset           0 length                  78 to matrix element file.
 Array NUCLEAR FORCE CONSTANTS              on  file  10585 does not exist.
 Write ELECTRIC DIPOLE MOMENT              from file      0 offset           0 length                   3 to matrix element file.
 Write ELECTRIC DIPOLE POLARIZABILITY      from file      0 offset           0 length                   6 to matrix element file.
 Write ELECTRIC DIPOLE HYPERPOLARIZABILITY from file      0 offset           0 length                  10 to matrix element file.
 Write NON-ADIABATIC COUPLING              from file  10810 offset           0 length                  78 to matrix element file.
 Write RED INT COORD DIMS                  from file      0 offset           0 length                   4 to matrix element file.
 Write RED INT COORD ATOMS                 from file      0 offset           0 length                 496 to matrix element file.
 Write RED INT COORD VALS                  from file      0 offset           0 length                 124 to matrix element file.
 Write RED INT COORD IFLAGS                from file      0 offset           0 length                 124 to matrix element file.
 Write RED INT COORD RFLAGS                from file      0 offset           0 length                 124 to matrix element file.
 Write RED INT COORD CONSTRAINT            from file      0 offset           0 length                 248 to matrix element file.
 Write FINITE EM FIELD                     from file  10521 offset           0 length                  35 to matrix element file.
 Write OVERLAP                             from file  10514 offset           0 length              191890 to matrix element file.
 Write CORE HAMILTONIAN ALPHA              from file  10515 offset           0 length              191890 to matrix element file.
 Write CORE HAMILTONIAN BETA               from file  10515 offset      191890 length              191890 to matrix element file.
 Write KINETIC ENERGY                      from file  10516 offset           0 length              191890 to matrix element file.
 Write ORTHOGONAL BASIS                    from file  10685 offset           0 length              383161 to matrix element file.
 Write DIPOLE INTEGRALS                    from file  10518 offset           0 length              575670 to matrix element file.
 Array DIP VEL INTEGRALS                    on  file  10572 does not exist.
 Array R X DEL INTEGRALS                    on  file  10572 does not exist.
 Write ALPHA ORBITAL ENERGIES              from file      0 offset           0 length                 619 to matrix element file.
 Write ALPHA MO COEFFICIENTS               from file  10524 offset           0 length              383161 to matrix element file.
 Write ALPHA DENSITY MATRIX                from file      0 offset           0 length              191890 to matrix element file.
 Write ALPHA FOCK MATRIX                   from file  10536 offset           0 length              191890 to matrix element file.
 Write ENERGY-WEIGHTED DENSITY             from file  10571 offset           0 length              191890 to matrix element file.
 Write ALPHA SCF DENSITY MATRIX            from file      0 offset           0 length              191890 to matrix element file.
 Write TRANS MO COEFFICIENTS               from file  10548 offset           0 length              383161 to matrix element file.
 No 2e integrals to process.
 Perform NBO analysis...executing G16NBO...

 *********************************** NBO 7.0 ***********************************
             N A T U R A L   A T O M I C   O R B I T A L   A N D
          N A T U R A L   B O N D   O R B I T A L   A N A L Y S I S
 **************************** Anita Orendt (S101720) ***************************
  (c) Copyright 1996-2021 Board of Regents of the University of Wisconsin System
      on behalf of the Theoretical Chemistry Institute.  All rights reserved.

          Cite this program [NBO 7.0.10 (8-Feb-2021)] as:

          NBO 7.0.  E. D. Glendening, J. K. Badenhoop, A. E. Reed,
          J. E. Carpenter, J. A. Bohmann, C. M. Morales, P. Karafiloglou,
          C. R. Landis, and F. Weinhold, Theoretical Chemistry Institute,
          University of Wisconsin, Madison, WI (2018)

 Filename set to /scratch/general/vast/u6067110/GAUSSSCRDIR/10754890-

 Job title: vsa2_crest_conformers-1


 NATURAL POPULATIONS:  Natural atomic orbital occupancies

  NAO Atom No lang   Type(AO)    Occupancy      Energy
 -------------------------------------------------------
   1    C  1  s      Cor( 1s)     1.99999     -10.54401
   2    C  1  s      Val( 2s)     0.90504      -0.07786
   3    C  1  s      Ryd( 3s)     0.00181       1.33896
   4    C  1  s      Ryd( 4s)     0.00009       1.67462
   5    C  1  s      Ryd( 5s)     0.00000      21.26352
   6    C  1  px     Val( 2p)     0.96787       0.02659
   7    C  1  px     Ryd( 3p)     0.00741       1.26170
   8    C  1  px     Ryd( 4p)     0.00013       2.01231
   9    C  1  py     Val( 2p)     1.01583       0.02364
  10    C  1  py     Ryd( 3p)     0.00621       1.20689
  11    C  1  py     Ryd( 4p)     0.00024       1.97755
  12    C  1  pz     Val( 2p)     0.93565      -0.07622
  13    C  1  pz     Ryd( 3p)     0.00248       0.70260
  14    C  1  pz     Ryd( 4p)     0.00014       1.37124
  15    C  1  dxy    Ryd( 3d)     0.00073       3.78611
  16    C  1  dxy    Ryd( 4d)     0.00059       3.99244
  17    C  1  dxz    Ryd( 3d)     0.00122       2.50235
  18    C  1  dxz    Ryd( 4d)     0.00010       2.45994
  19    C  1  dyz    Ryd( 3d)     0.00036       2.49286
  20    C  1  dyz    Ryd( 4d)     0.00006       2.48119
  21    C  1  dx2y2  Ryd( 3d)     0.00073       3.40586
  22    C  1  dx2y2  Ryd( 4d)     0.00051       3.91889
  23    C  1  dz2    Ryd( 3d)     0.00039       3.61176
  24    C  1  dz2    Ryd( 4d)     0.00005       3.16513
  25    C  1  f(0)   Ryd( 4f)     0.00033       3.33760
  26    C  1  f(c1)  Ryd( 4f)     0.00037       3.44338
  27    C  1  f(s1)  Ryd( 4f)     0.00039       3.43128
  28    C  1  f(c2)  Ryd( 4f)     0.00001       3.35261
  29    C  1  f(s2)  Ryd( 4f)     0.00002       3.38758
  30    C  1  f(c3)  Ryd( 4f)     0.00007       4.05753
  31    C  1  f(s3)  Ryd( 4f)     0.00052       3.86236

  32    C  2  s      Cor( 1s)     1.99999     -10.49886
  33    C  2  s      Val( 2s)     0.92771      -0.07604
  34    C  2  s      Ryd( 3s)     0.00521       1.23062
  35    C  2  s      Ryd( 4s)     0.00015       2.79881
  36    C  2  s      Ryd( 5s)     0.00000      19.60214
  37    C  2  px     Val( 2p)     0.92492       0.04377
  38    C  2  px     Ryd( 3p)     0.00640       1.13317
  39    C  2  px     Ryd( 4p)     0.00029       1.90424
  40    C  2  py     Val( 2p)     1.09983      -0.00340
  41    C  2  py     Ryd( 3p)     0.00354       1.05802
  42    C  2  py     Ryd( 4p)     0.00110       1.75232
  43    C  2  pz     Val( 2p)     1.19747      -0.08550
  44    C  2  pz     Ryd( 3p)     0.00833       0.56566
  45    C  2  pz     Ryd( 4p)     0.00032       1.41278
  46    C  2  dxy    Ryd( 3d)     0.00092       3.72418
  47    C  2  dxy    Ryd( 4d)     0.00024       3.48483
  48    C  2  dxz    Ryd( 3d)     0.00049       2.53060
  49    C  2  dxz    Ryd( 4d)     0.00004       2.38683
  50    C  2  dyz    Ryd( 3d)     0.00026       2.38366
  51    C  2  dyz    Ryd( 4d)     0.00006       2.38120
  52    C  2  dx2y2  Ryd( 3d)     0.00075       3.07031
  53    C  2  dx2y2  Ryd( 4d)     0.00045       3.73612
  54    C  2  dz2    Ryd( 3d)     0.00070       3.18562
  55    C  2  dz2    Ryd( 4d)     0.00006       3.01202
  56    C  2  f(0)   Ryd( 4f)     0.00046       3.30342
  57    C  2  f(c1)  Ryd( 4f)     0.00025       3.51496
  58    C  2  f(s1)  Ryd( 4f)     0.00036       3.40208
  59    C  2  f(c2)  Ryd( 4f)     0.00001       3.32886
  60    C  2  f(s2)  Ryd( 4f)     0.00002       3.40182
  61    C  2  f(c3)  Ryd( 4f)     0.00009       4.07112
  62    C  2  f(s3)  Ryd( 4f)     0.00044       3.94928

  63    N  3  s      Cor( 1s)     1.99999     -14.71125
  64    N  3  s      Val( 2s)     1.32725      -0.37599
  65    N  3  s      Ryd( 3s)     0.00324       1.12095
  66    N  3  s      Ryd( 4s)     0.00007       4.18455
  67    N  3  s      Ryd( 5s)     0.00000      29.02659
  68    N  3  px     Val( 2p)     1.21635      -0.09058
  69    N  3  px     Ryd( 3p)     0.00199       1.23075
  70    N  3  px     Ryd( 4p)     0.00008       3.59675
  71    N  3  py     Val( 2p)     1.69714      -0.21731
  72    N  3  py     Ryd( 3p)     0.00680       0.84275
  73    N  3  py     Ryd( 4p)     0.00014       3.26871
  74    N  3  pz     Val( 2p)     1.14815      -0.15411
  75    N  3  pz     Ryd( 3p)     0.00081       0.63202
  76    N  3  pz     Ryd( 4p)     0.00000       2.43066
  77    N  3  dxy    Ryd( 3d)     0.00592       2.17737
  78    N  3  dxy    Ryd( 4d)     0.00010       5.42370
  79    N  3  dxz    Ryd( 3d)     0.00068       1.66580
  80    N  3  dxz    Ryd( 4d)     0.00018       4.88186
  81    N  3  dyz    Ryd( 3d)     0.00278       1.47076
  82    N  3  dyz    Ryd( 4d)     0.00001       4.70992
  83    N  3  dx2y2  Ryd( 3d)     0.00274       2.32288
  84    N  3  dx2y2  Ryd( 4d)     0.00020       5.35025
  85    N  3  dz2    Ryd( 3d)     0.00418       1.84979
  86    N  3  dz2    Ryd( 4d)     0.00002       5.07019
  87    N  3  f(0)   Ryd( 4f)     0.00019       4.36466
  88    N  3  f(c1)  Ryd( 4f)     0.00023       4.61620
  89    N  3  f(s1)  Ryd( 4f)     0.00010       4.29729
  90    N  3  f(c2)  Ryd( 4f)     0.00012       4.43267
  91    N  3  f(s2)  Ryd( 4f)     0.00001       4.54519
  92    N  3  f(c3)  Ryd( 4f)     0.00018       5.11386
  93    N  3  f(s3)  Ryd( 4f)     0.00037       5.02198

  94    C  4  s      Cor( 1s)     1.99999     -10.50874
  95    C  4  s      Val( 2s)     0.91838      -0.07584
  96    C  4  s      Ryd( 3s)     0.00530       1.26916
  97    C  4  s      Ryd( 4s)     0.00016       2.31367
  98    C  4  s      Ryd( 5s)     0.00000      20.17450
  99    C  4  px     Val( 2p)     0.92919       0.04200
 100    C  4  px     Ryd( 3p)     0.00539       1.15108
 101    C  4  px     Ryd( 4p)     0.00027       1.91775
 102    C  4  py     Val( 2p)     1.09487      -0.00636
 103    C  4  py     Ryd( 3p)     0.00384       1.09940
 104    C  4  py     Ryd( 4p)     0.00099       1.70062
 105    C  4  pz     Val( 2p)     1.15752      -0.08629
 106    C  4  pz     Ryd( 3p)     0.00695       0.59403
 107    C  4  pz     Ryd( 4p)     0.00037       1.37904
 108    C  4  dxy    Ryd( 4d)     0.00083       3.74655
 109    C  4  dxy    Ryd( 3d)     0.00030       3.37952
 110    C  4  dxz    Ryd( 4d)     0.00054       2.61846
 111    C  4  dxz    Ryd( 3d)     0.00003       2.31606
 112    C  4  dyz    Ryd( 4d)     0.00021       2.45849
 113    C  4  dyz    Ryd( 3d)     0.00004       2.29588
 114    C  4  dx2y2  Ryd( 4d)     0.00079       3.20162
 115    C  4  dx2y2  Ryd( 3d)     0.00051       3.70125
 116    C  4  dz2    Ryd( 4d)     0.00067       3.29172
 117    C  4  dz2    Ryd( 3d)     0.00008       2.91668
 118    C  4  f(0)   Ryd( 4f)     0.00042       3.30785
 119    C  4  f(c1)  Ryd( 4f)     0.00026       3.49781
 120    C  4  f(s1)  Ryd( 4f)     0.00036       3.39222
 121    C  4  f(c2)  Ryd( 4f)     0.00001       3.34178
 122    C  4  f(s2)  Ryd( 4f)     0.00002       3.40412
 123    C  4  f(c3)  Ryd( 4f)     0.00010       4.08890
 124    C  4  f(s3)  Ryd( 4f)     0.00040       3.93644

 125    C  5  s      Cor( 1s)     1.99999     -10.52196
 126    C  5  s      Val( 2s)     0.93440      -0.08557
 127    C  5  s      Ryd( 3s)     0.00056       1.34498
 128    C  5  s      Ryd( 4s)     0.00005       2.19399
 129    C  5  s      Ryd( 5s)     0.00000      19.38820
 130    C  5  px     Val( 2p)     1.06324       0.01241
 131    C  5  px     Ryd( 3p)     0.00684       1.26773
 132    C  5  px     Ryd( 4p)     0.00011       2.54254
 133    C  5  py     Val( 2p)     1.06467       0.01130
 134    C  5  py     Ryd( 3p)     0.00368       1.21595
 135    C  5  py     Ryd( 4p)     0.00012       2.31159
 136    C  5  pz     Val( 2p)     0.98111      -0.07804
 137    C  5  pz     Ryd( 3p)     0.00170       0.69051
 138    C  5  pz     Ryd( 4p)     0.00009       1.47618
 139    C  5  dxy    Ryd( 3d)     0.00076       3.46936
 140    C  5  dxy    Ryd( 4d)     0.00047       4.23595
 141    C  5  dxz    Ryd( 3d)     0.00071       2.25213
 142    C  5  dxz    Ryd( 4d)     0.00004       2.74981
 143    C  5  dyz    Ryd( 3d)     0.00027       2.25476
 144    C  5  dyz    Ryd( 4d)     0.00010       2.73064
 145    C  5  dx2y2  Ryd( 3d)     0.00070       3.29241
 146    C  5  dx2y2  Ryd( 4d)     0.00043       4.25412
 147    C  5  dz2    Ryd( 3d)     0.00056       3.68837
 148    C  5  dz2    Ryd( 4d)     0.00003       3.44154
 149    C  5  f(0)   Ryd( 4f)     0.00038       3.29170
 150    C  5  f(c1)  Ryd( 4f)     0.00053       3.39918
 151    C  5  f(s1)  Ryd( 4f)     0.00050       3.37616
 152    C  5  f(c2)  Ryd( 4f)     0.00001       3.33578
 153    C  5  f(s2)  Ryd( 4f)     0.00003       3.32697
 154    C  5  f(c3)  Ryd( 4f)     0.00011       3.97334
 155    C  5  f(s3)  Ryd( 4f)     0.00062       3.89802

 156    C  6  s      Cor( 1s)     1.99999     -10.50908
 157    C  6  s      Val( 2s)     0.97779      -0.11093
 158    C  6  s      Ryd( 4s)     0.00093       1.75016
 159    C  6  s      Ryd( 3s)     0.00011       1.51123
 160    C  6  s      Ryd( 5s)     0.00000      19.90396
 161    C  6  px     Val( 2p)     1.14085      -0.01413
 162    C  6  px     Ryd( 3p)     0.00409       1.22963
 163    C  6  px     Ryd( 4p)     0.00024       2.20652
 164    C  6  py     Val( 2p)     1.07167       0.00336
 165    C  6  py     Ryd( 3p)     0.00359       1.05442
 166    C  6  py     Ryd( 4p)     0.00012       2.16424
 167    C  6  pz     Val( 2p)     1.03604      -0.08907
 168    C  6  pz     Ryd( 3p)     0.00216       0.65907
 169    C  6  pz     Ryd( 4p)     0.00024       1.39074
 170    C  6  dxy    Ryd( 3d)     0.00088       2.73950
 171    C  6  dxy    Ryd( 4d)     0.00041       4.21339
 172    C  6  dxz    Ryd( 3d)     0.00048       1.71949
 173    C  6  dxz    Ryd( 4d)     0.00010       3.07595
 174    C  6  dyz    Ryd( 3d)     0.00016       1.77828
 175    C  6  dyz    Ryd( 4d)     0.00008       3.02010
 176    C  6  dx2y2  Ryd( 3d)     0.00141       2.65754
 177    C  6  dx2y2  Ryd( 4d)     0.00029       4.08336
 178    C  6  dz2    Ryd( 3d)     0.00108       2.28805
 179    C  6  dz2    Ryd( 4d)     0.00001       3.64376
 180    C  6  f(0)   Ryd( 4f)     0.00036       3.23314
 181    C  6  f(c1)  Ryd( 4f)     0.00050       3.39649
 182    C  6  f(s1)  Ryd( 4f)     0.00044       3.39848
 183    C  6  f(c2)  Ryd( 4f)     0.00002       3.33525
 184    C  6  f(s2)  Ryd( 4f)     0.00002       3.28101
 185    C  6  f(c3)  Ryd( 4f)     0.00015       3.93378
 186    C  6  f(s3)  Ryd( 4f)     0.00053       3.97077

 187    C  7  s      Cor( 1s)     1.99999     -10.51981
 188    C  7  s      Val( 2s)     0.98223      -0.12324
 189    C  7  s      Ryd( 3s)     0.00090       1.60474
 190    C  7  s      Ryd( 4s)     0.00003       1.93870
 191    C  7  s      Ryd( 5s)     0.00000      20.64137
 192    C  7  px     Val( 2p)     1.04809       0.00636
 193    C  7  px     Ryd( 3p)     0.00340       1.03992
 194    C  7  px     Ryd( 4p)     0.00009       2.25468
 195    C  7  py     Val( 2p)     1.16647      -0.02858
 196    C  7  py     Ryd( 3p)     0.00462       1.20660
 197    C  7  py     Ryd( 4p)     0.00012       2.05861
 198    C  7  pz     Val( 2p)     1.00385      -0.09300
 199    C  7  pz     Ryd( 3p)     0.00145       0.70051
 200    C  7  pz     Ryd( 4p)     0.00019       1.34413
 201    C  7  dxy    Ryd( 3d)     0.00146       2.66251
 202    C  7  dxy    Ryd( 4d)     0.00020       3.83087
 203    C  7  dxz    Ryd( 3d)     0.00030       1.93489
 204    C  7  dxz    Ryd( 4d)     0.00008       2.86611
 205    C  7  dyz    Ryd( 3d)     0.00034       1.81132
 206    C  7  dyz    Ryd( 4d)     0.00004       2.94198
 207    C  7  dx2y2  Ryd( 3d)     0.00085       2.69704
 208    C  7  dx2y2  Ryd( 4d)     0.00042       4.27853
 209    C  7  dz2    Ryd( 3d)     0.00101       2.24865
 210    C  7  dz2    Ryd( 4d)     0.00001       3.50327
 211    C  7  f(0)   Ryd( 4f)     0.00034       3.22302
 212    C  7  f(c1)  Ryd( 4f)     0.00043       3.43669
 213    C  7  f(s1)  Ryd( 4f)     0.00055       3.33686
 214    C  7  f(c2)  Ryd( 4f)     0.00003       3.26143
 215    C  7  f(s2)  Ryd( 4f)     0.00001       3.33317
 216    C  7  f(c3)  Ryd( 4f)     0.00015       3.89888
 217    C  7  f(s3)  Ryd( 4f)     0.00053       3.94573

 218    C  8  s      Cor( 1s)     1.99999     -10.51270
 219    C  8  s      Val( 2s)     0.98185      -0.12342
 220    C  8  s      Ryd( 3s)     0.00082       1.50541
 221    C  8  s      Ryd( 4s)     0.00003       1.84827
 222    C  8  s      Ryd( 5s)     0.00000      21.04890
 223    C  8  px     Val( 2p)     1.13971      -0.02286
 224    C  8  px     Ryd( 3p)     0.00418       1.10007
 225    C  8  px     Ryd( 4p)     0.00025       2.00436
 226    C  8  py     Val( 2p)     1.07187      -0.00656
 227    C  8  py     Ryd( 3p)     0.00392       1.00752
 228    C  8  py     Ryd( 4p)     0.00019       2.11309
 229    C  8  pz     Val( 2p)     1.07681      -0.09788
 230    C  8  pz     Ryd( 3p)     0.00365       0.62970
 231    C  8  pz     Ryd( 4p)     0.00032       1.39481
 232    C  8  dxy    Ryd( 3d)     0.00093       2.63270
 233    C  8  dxy    Ryd( 4d)     0.00038       4.12026
 234    C  8  dxz    Ryd( 3d)     0.00029       1.80638
 235    C  8  dxz    Ryd( 4d)     0.00005       2.95677
 236    C  8  dyz    Ryd( 3d)     0.00018       1.85608
 237    C  8  dyz    Ryd( 4d)     0.00009       2.90130
 238    C  8  dx2y2  Ryd( 3d)     0.00122       2.62097
 239    C  8  dx2y2  Ryd( 4d)     0.00027       3.97684
 240    C  8  dz2    Ryd( 3d)     0.00104       2.21767
 241    C  8  dz2    Ryd( 4d)     0.00002       3.51969
 242    C  8  f(0)   Ryd( 4f)     0.00040       3.23976
 243    C  8  f(c1)  Ryd( 4f)     0.00052       3.37758
 244    C  8  f(s1)  Ryd( 4f)     0.00044       3.41004
 245    C  8  f(c2)  Ryd( 4f)     0.00001       3.32239
 246    C  8  f(s2)  Ryd( 4f)     0.00002       3.28968
 247    C  8  f(c3)  Ryd( 4f)     0.00012       3.91769
 248    C  8  f(s3)  Ryd( 4f)     0.00051       3.94457

 249    C  9  s      Cor( 1s)     1.99999     -10.52061
 250    C  9  s      Val( 2s)     0.98163      -0.12474
 251    C  9  s      Ryd( 3s)     0.00089       1.58218
 252    C  9  s      Ryd( 4s)     0.00003       1.81823
 253    C  9  s      Ryd( 5s)     0.00000      20.47996
 254    C  9  px     Val( 2p)     1.13486      -0.02075
 255    C  9  px     Ryd( 3p)     0.00430       1.15210
 256    C  9  px     Ryd( 4p)     0.00013       2.13948
 257    C  9  py     Val( 2p)     1.07986      -0.00513
 258    C  9  py     Ryd( 3p)     0.00379       1.08552
 259    C  9  py     Ryd( 4p)     0.00009       2.13245
 260    C  9  pz     Val( 2p)     1.00583      -0.09410
 261    C  9  pz     Ryd( 3p)     0.00152       0.69881
 262    C  9  pz     Ryd( 4p)     0.00021       1.33771
 263    C  9  dxy    Ryd( 3d)     0.00099       2.67562
 264    C  9  dxy    Ryd( 4d)     0.00039       4.17435
 265    C  9  dxz    Ryd( 3d)     0.00039       1.84062
 266    C  9  dxz    Ryd( 4d)     0.00005       2.92347
 267    C  9  dyz    Ryd( 3d)     0.00024       1.88593
 268    C  9  dyz    Ryd( 4d)     0.00009       2.88627
 269    C  9  dx2y2  Ryd( 3d)     0.00132       2.64506
 270    C  9  dx2y2  Ryd( 4d)     0.00023       3.91513
 271    C  9  dz2    Ryd( 3d)     0.00103       2.22852
 272    C  9  dz2    Ryd( 4d)     0.00002       3.50332
 273    C  9  f(0)   Ryd( 4f)     0.00035       3.22066
 274    C  9  f(c1)  Ryd( 4f)     0.00052       3.37043
 275    C  9  f(s1)  Ryd( 4f)     0.00048       3.39666
 276    C  9  f(c2)  Ryd( 4f)     0.00001       3.31665
 277    C  9  f(s2)  Ryd( 4f)     0.00002       3.27150
 278    C  9  f(c3)  Ryd( 4f)     0.00015       3.89064
 279    C  9  f(s3)  Ryd( 4f)     0.00053       3.94403

 280    C 10  s      Cor( 1s)     1.99999     -10.51274
 281    C 10  s      Val( 2s)     0.97545      -0.11643
 282    C 10  s      Ryd( 3s)     0.00081       1.74567
 283    C 10  s      Ryd( 4s)     0.00009       1.75630
 284    C 10  s      Ryd( 5s)     0.00000      20.06317
 285    C 10  px     Val( 2p)     1.03934       0.00826
 286    C 10  px     Ryd( 3p)     0.00298       1.07184
 287    C 10  px     Ryd( 4p)     0.00013       2.28848
 288    C 10  py     Val( 2p)     1.16288      -0.02746
 289    C 10  py     Ryd( 3p)     0.00457       1.19068
 290    C 10  py     Ryd( 4p)     0.00021       2.02529
 291    C 10  pz     Val( 2p)     1.05466      -0.09455
 292    C 10  pz     Ryd( 3p)     0.00217       0.66132
 293    C 10  pz     Ryd( 4p)     0.00025       1.38011
 294    C 10  dxy    Ryd( 3d)     0.00140       2.63775
 295    C 10  dxy    Ryd( 4d)     0.00021       3.94092
 296    C 10  dxz    Ryd( 3d)     0.00019       1.85154
 297    C 10  dxz    Ryd( 4d)     0.00010       2.95720
 298    C 10  dyz    Ryd( 3d)     0.00041       1.72859
 299    C 10  dyz    Ryd( 4d)     0.00006       3.03367
 300    C 10  dx2y2  Ryd( 3d)     0.00075       2.75270
 301    C 10  dx2y2  Ryd( 4d)     0.00045       4.29632
 302    C 10  dz2    Ryd( 3d)     0.00108       2.30171
 303    C 10  dz2    Ryd( 4d)     0.00001       3.60568
 304    C 10  f(0)   Ryd( 4f)     0.00039       3.22827
 305    C 10  f(c1)  Ryd( 4f)     0.00042       3.44086
 306    C 10  f(s1)  Ryd( 4f)     0.00053       3.33809
 307    C 10  f(c2)  Ryd( 4f)     0.00003       3.27631
 308    C 10  f(s2)  Ryd( 4f)     0.00002       3.33320
 309    C 10  f(c3)  Ryd( 4f)     0.00015       3.92921
 310    C 10  f(s3)  Ryd( 4f)     0.00052       3.94584

 311    N 11  s      Cor( 1s)     1.99999     -14.70623
 312    N 11  s      Val( 2s)     1.36557      -0.39703
 313    N 11  s      Ryd( 3s)     0.00123       1.45346
 314    N 11  s      Ryd( 4s)     0.00005       4.13130
 315    N 11  s      Ryd( 5s)     0.00000      28.41529
 316    N 11  px     Val( 2p)     1.18067      -0.09403
 317    N 11  px     Ryd( 3p)     0.00303       1.06163
 318    N 11  px     Ryd( 4p)     0.00010       3.39620
 319    N 11  py     Val( 2p)     1.68056      -0.21583
 320    N 11  py     Ryd( 3p)     0.00710       0.70974
 321    N 11  py     Ryd( 4p)     0.00028       3.33674
 322    N 11  pz     Val( 2p)     1.25424      -0.16793
 323    N 11  pz     Ryd( 3p)     0.00158       0.66868
 324    N 11  pz     Ryd( 4p)     0.00001       2.38492
 325    N 11  dxy    Ryd( 3d)     0.00647       2.09413
 326    N 11  dxy    Ryd( 4d)     0.00011       5.33926
 327    N 11  dxz    Ryd( 3d)     0.00015       1.60923
 328    N 11  dxz    Ryd( 4d)     0.00013       4.85064
 329    N 11  dyz    Ryd( 3d)     0.00403       1.46611
 330    N 11  dyz    Ryd( 4d)     0.00002       4.75339
 331    N 11  dx2y2  Ryd( 3d)     0.00277       2.24703
 332    N 11  dx2y2  Ryd( 4d)     0.00021       5.24516
 333    N 11  dz2    Ryd( 3d)     0.00478       1.85390
 334    N 11  dz2    Ryd( 4d)     0.00001       5.13307
 335    N 11  f(0)   Ryd( 4f)     0.00020       4.41905
 336    N 11  f(c1)  Ryd( 4f)     0.00018       4.58498
 337    N 11  f(s1)  Ryd( 4f)     0.00011       4.31465
 338    N 11  f(c2)  Ryd( 4f)     0.00008       4.42866
 339    N 11  f(s2)  Ryd( 4f)     0.00000       4.62250
 340    N 11  f(c3)  Ryd( 4f)     0.00009       5.21129
 341    N 11  f(s3)  Ryd( 4f)     0.00027       5.01720

 342    C 12  s      Cor( 1s)     1.99999     -10.54515
 343    C 12  s      Val( 2s)     0.94598      -0.11443
 344    C 12  s      Ryd( 4s)     0.00223       1.51197
 345    C 12  s      Ryd( 3s)     0.00003       1.23963
 346    C 12  s      Ryd( 5s)     0.00000      21.52582
 347    C 12  px     Val( 2p)     1.01690       0.00090
 348    C 12  px     Ryd( 3p)     0.00678       1.18694
 349    C 12  px     Ryd( 4p)     0.00009       1.58948
 350    C 12  py     Val( 2p)     1.04685       0.00589
 351    C 12  py     Ryd( 3p)     0.00734       1.07476
 352    C 12  py     Ryd( 4p)     0.00023       1.81812
 353    C 12  pz     Val( 2p)     0.93149      -0.08967
 354    C 12  pz     Ryd( 3p)     0.00177       0.71337
 355    C 12  pz     Ryd( 4p)     0.00019       1.21346
 356    C 12  dxy    Ryd( 3d)     0.00104       3.20015
 357    C 12  dxy    Ryd( 4d)     0.00046       3.71716
 358    C 12  dxz    Ryd( 3d)     0.00087       2.21283
 359    C 12  dxz    Ryd( 4d)     0.00011       2.54007
 360    C 12  dyz    Ryd( 3d)     0.00041       2.22749
 361    C 12  dyz    Ryd( 4d)     0.00006       2.52433
 362    C 12  dx2y2  Ryd( 3d)     0.00106       2.97187
 363    C 12  dx2y2  Ryd( 4d)     0.00033       3.46179
 364    C 12  dz2    Ryd( 3d)     0.00070       2.68722
 365    C 12  dz2    Ryd( 4d)     0.00005       3.06094
 366    C 12  f(0)   Ryd( 4f)     0.00027       3.25835
 367    C 12  f(c1)  Ryd( 4f)     0.00036       3.38449
 368    C 12  f(s1)  Ryd( 4f)     0.00040       3.44037
 369    C 12  f(c2)  Ryd( 4f)     0.00001       3.34336
 370    C 12  f(s2)  Ryd( 4f)     0.00003       3.34269
 371    C 12  f(c3)  Ryd( 4f)     0.00013       3.98791
 372    C 12  f(s3)  Ryd( 4f)     0.00040       3.91488

 373    C 13  s      Cor( 1s)     1.99999     -10.50799
 374    C 13  s      Val( 2s)     0.99297      -0.12914
 375    C 13  s      Ryd( 4s)     0.00081       1.34478
 376    C 13  s      Ryd( 3s)     0.00005       1.29195
 377    C 13  s      Ryd( 5s)     0.00000      21.46670
 378    C 13  px     Val( 2p)     1.14931      -0.02694
 379    C 13  px     Ryd( 3p)     0.00314       1.06333
 380    C 13  px     Ryd( 4p)     0.00034       1.92706
 381    C 13  py     Val( 2p)     1.07314      -0.01282
 382    C 13  py     Ryd( 3p)     0.00413       0.94198
 383    C 13  py     Ryd( 4p)     0.00026       2.17012
 384    C 13  pz     Val( 2p)     1.12509      -0.10340
 385    C 13  pz     Ryd( 3p)     0.00458       0.60298
 386    C 13  pz     Ryd( 4p)     0.00030       1.40804
 387    C 13  dxy    Ryd( 3d)     0.00100       2.52243
 388    C 13  dxy    Ryd( 4d)     0.00029       4.13504
 389    C 13  dxz    Ryd( 3d)     0.00034       1.74791
 390    C 13  dxz    Ryd( 4d)     0.00004       3.02258
 391    C 13  dyz    Ryd( 3d)     0.00013       1.79085
 392    C 13  dyz    Ryd( 4d)     0.00009       2.94987
 393    C 13  dx2y2  Ryd( 3d)     0.00136       2.67524
 394    C 13  dx2y2  Ryd( 4d)     0.00025       4.04498
 395    C 13  dz2    Ryd( 3d)     0.00115       2.10170
 396    C 13  dz2    Ryd( 4d)     0.00002       3.56453
 397    C 13  f(0)   Ryd( 4f)     0.00045       3.23001
 398    C 13  f(c1)  Ryd( 4f)     0.00054       3.37801
 399    C 13  f(s1)  Ryd( 4f)     0.00042       3.41258
 400    C 13  f(c2)  Ryd( 4f)     0.00002       3.30189
 401    C 13  f(s2)  Ryd( 4f)     0.00003       3.27928
 402    C 13  f(c3)  Ryd( 4f)     0.00013       3.90324
 403    C 13  f(s3)  Ryd( 4f)     0.00052       3.94644

 404    C 14  s      Cor( 1s)     1.99999     -10.52706
 405    C 14  s      Val( 2s)     0.98613      -0.12584
 406    C 14  s      Ryd( 3s)     0.00111       1.28131
 407    C 14  s      Ryd( 4s)     0.00008       1.65546
 408    C 14  s      Ryd( 5s)     0.00000      21.12861
 409    C 14  px     Val( 2p)     1.04905       0.00025
 410    C 14  px     Ryd( 3p)     0.00350       1.02202
 411    C 14  px     Ryd( 4p)     0.00007       2.37040
 412    C 14  py     Val( 2p)     1.16655      -0.02987
 413    C 14  py     Ryd( 3p)     0.00479       1.21476
 414    C 14  py     Ryd( 4p)     0.00009       1.97378
 415    C 14  pz     Val( 2p)     0.96687      -0.09435
 416    C 14  pz     Ryd( 3p)     0.00109       0.71768
 417    C 14  pz     Ryd( 4p)     0.00016       1.33536
 418    C 14  dxy    Ryd( 3d)     0.00153       2.60419
 419    C 14  dxy    Ryd( 4d)     0.00019       3.85512
 420    C 14  dxz    Ryd( 3d)     0.00036       1.87840
 421    C 14  dxz    Ryd( 4d)     0.00009       2.89850
 422    C 14  dyz    Ryd( 3d)     0.00038       1.76196
 423    C 14  dyz    Ryd( 4d)     0.00003       2.97962
 424    C 14  dx2y2  Ryd( 3d)     0.00088       2.65879
 425    C 14  dx2y2  Ryd( 4d)     0.00047       4.24097
 426    C 14  dz2    Ryd( 3d)     0.00112       2.15982
 427    C 14  dz2    Ryd( 4d)     0.00003       3.50326
 428    C 14  f(0)   Ryd( 4f)     0.00033       3.22257
 429    C 14  f(c1)  Ryd( 4f)     0.00043       3.42600
 430    C 14  f(s1)  Ryd( 4f)     0.00057       3.34165
 431    C 14  f(c2)  Ryd( 4f)     0.00001       3.26036
 432    C 14  f(s2)  Ryd( 4f)     0.00001       3.34242
 433    C 14  f(c3)  Ryd( 4f)     0.00014       3.89843
 434    C 14  f(s3)  Ryd( 4f)     0.00053       3.94966

 435    C 15  s      Cor( 1s)     1.99999     -10.50783
 436    C 15  s      Val( 2s)     0.98958      -0.11859
 437    C 15  s      Ryd( 4s)     0.00125       1.47150
 438    C 15  s      Ryd( 3s)     0.00014       1.38529
 439    C 15  s      Ryd( 5s)     0.00000      20.89486
 440    C 15  px     Val( 2p)     1.14786      -0.01847
 441    C 15  px     Ryd( 3p)     0.00324       1.21186
 442    C 15  px     Ryd( 4p)     0.00029       2.10162
 443    C 15  py     Val( 2p)     1.07898      -0.00402
 444    C 15  py     Ryd( 3p)     0.00375       1.03180
 445    C 15  py     Ryd( 4p)     0.00016       2.10590
 446    C 15  pz     Val( 2p)     1.05213      -0.09317
 447    C 15  pz     Ryd( 3p)     0.00215       0.65211
 448    C 15  pz     Ryd( 4p)     0.00027       1.39001
 449    C 15  dxy    Ryd( 3d)     0.00103       2.61930
 450    C 15  dxy    Ryd( 4d)     0.00031       4.27981
 451    C 15  dxz    Ryd( 3d)     0.00060       1.67635
 452    C 15  dxz    Ryd( 4d)     0.00008       3.12664
 453    C 15  dyz    Ryd( 3d)     0.00012       1.71579
 454    C 15  dyz    Ryd( 4d)     0.00007       3.05206
 455    C 15  dx2y2  Ryd( 3d)     0.00161       2.65735
 456    C 15  dx2y2  Ryd( 4d)     0.00025       4.10467
 457    C 15  dz2    Ryd( 3d)     0.00119       2.11752
 458    C 15  dz2    Ryd( 4d)     0.00001       3.67232
 459    C 15  f(0)   Ryd( 4f)     0.00038       3.22154
 460    C 15  f(c1)  Ryd( 4f)     0.00052       3.40611
 461    C 15  f(s1)  Ryd( 4f)     0.00043       3.39497
 462    C 15  f(c2)  Ryd( 4f)     0.00002       3.32692
 463    C 15  f(s2)  Ryd( 4f)     0.00003       3.25580
 464    C 15  f(c3)  Ryd( 4f)     0.00018       3.91421
 465    C 15  f(s3)  Ryd( 4f)     0.00056       3.98324

 466    H 16  s      Val( 1s)     0.84788       0.06193
 467    H 16  s      Ryd( 2s)     0.00328       0.53116
 468    H 16  s      Ryd( 3s)     0.00012       2.32679
 469    H 16  px     Ryd( 2p)     0.00009       2.51906
 470    H 16  px     Ryd( 3p)     0.00010       3.38303
 471    H 16  py     Ryd( 2p)     0.00021       2.85692
 472    H 16  py     Ryd( 3p)     0.00007       4.21940
 473    H 16  pz     Ryd( 2p)     0.00020       2.24016
 474    H 16  pz     Ryd( 3p)     0.00001       2.95276
 475    H 16  dxy    Ryd( 3d)     0.00002       4.47679
 476    H 16  dxz    Ryd( 3d)     0.00000       3.51789
 477    H 16  dyz    Ryd( 3d)     0.00002       4.17652
 478    H 16  dx2y2  Ryd( 3d)     0.00006       4.42662
 479    H 16  dz2    Ryd( 3d)     0.00001       3.99207

 480    H 17  s      Val( 1s)     0.85519       0.05261
 481    H 17  s      Ryd( 2s)     0.00322       0.53292
 482    H 17  s      Ryd( 3s)     0.00012       2.33565
 483    H 17  px     Ryd( 2p)     0.00010       2.52507
 484    H 17  px     Ryd( 3p)     0.00009       3.33260
 485    H 17  py     Ryd( 2p)     0.00023       2.84905
 486    H 17  py     Ryd( 3p)     0.00006       4.19942
 487    H 17  pz     Ryd( 2p)     0.00020       2.26349
 488    H 17  pz     Ryd( 3p)     0.00001       2.91427
 489    H 17  dxy    Ryd( 3d)     0.00002       4.48148
 490    H 17  dxz    Ryd( 3d)     0.00001       3.50889
 491    H 17  dyz    Ryd( 3d)     0.00002       4.17272
 492    H 17  dx2y2  Ryd( 3d)     0.00005       4.41488
 493    H 17  dz2    Ryd( 3d)     0.00001       3.98309

 494    H 18  s      Val( 1s)     0.77770       0.09884
 495    H 18  s      Ryd( 2s)     0.00085       0.99771
 496    H 18  s      Ryd( 3s)     0.00010       2.10178
 497    H 18  px     Ryd( 3p)     0.00020       4.40257
 498    H 18  px     Ryd( 2p)     0.00008       2.33993
 499    H 18  py     Ryd( 3p)     0.00011       4.36893
 500    H 18  py     Ryd( 2p)     0.00012       1.88813
 501    H 18  pz     Ryd( 3p)     0.00005       3.99323
 502    H 18  pz     Ryd( 2p)     0.00004       1.16843
 503    H 18  dxy    Ryd( 3d)     0.00005       4.51674
 504    H 18  dxz    Ryd( 3d)     0.00001       4.04959
 505    H 18  dyz    Ryd( 3d)     0.00001       3.73140
 506    H 18  dx2y2  Ryd( 3d)     0.00004       4.55794
 507    H 18  dz2    Ryd( 3d)     0.00001       4.05322

 508    H 19  s      Val( 1s)     0.78954       0.08223
 509    H 19  s      Ryd( 2s)     0.00041       0.73411
 510    H 19  s      Ryd( 3s)     0.00009       2.14482
 511    H 19  px     Ryd( 3p)     0.00007       4.24225
 512    H 19  px     Ryd( 2p)     0.00006       1.57785
 513    H 19  py     Ryd( 3p)     0.00026       4.34551
 514    H 19  py     Ryd( 2p)     0.00005       2.40806
 515    H 19  pz     Ryd( 3p)     0.00002       3.87023
 516    H 19  pz     Ryd( 2p)     0.00008       1.24858
 517    H 19  dxy    Ryd( 3d)     0.00003       4.52281
 518    H 19  dxz    Ryd( 3d)     0.00000       3.53976
 519    H 19  dyz    Ryd( 3d)     0.00001       4.22200
 520    H 19  dx2y2  Ryd( 3d)     0.00005       4.49066
 521    H 19  dz2    Ryd( 3d)     0.00001       4.02113

 522    H 20  s      Val( 1s)     0.78718       0.08280
 523    H 20  s      Ryd( 2s)     0.00036       0.63180
 524    H 20  s      Ryd( 3s)     0.00009       2.22497
 525    H 20  px     Ryd( 3p)     0.00021       4.23702
 526    H 20  px     Ryd( 2p)     0.00005       2.28773
 527    H 20  py     Ryd( 3p)     0.00010       4.30065
 528    H 20  py     Ryd( 2p)     0.00005       1.72897
 529    H 20  pz     Ryd( 3p)     0.00004       3.98702
 530    H 20  pz     Ryd( 2p)     0.00013       1.14554
 531    H 20  dxy    Ryd( 3d)     0.00005       4.49427
 532    H 20  dxz    Ryd( 3d)     0.00002       4.05670
 533    H 20  dyz    Ryd( 3d)     0.00001       3.69246
 534    H 20  dx2y2  Ryd( 3d)     0.00004       4.50391
 535    H 20  dz2    Ryd( 3d)     0.00001       4.01682

 536    H 21  s      Val( 1s)     0.78870       0.08097
 537    H 21  s      Ryd( 2s)     0.00040       0.71230
 538    H 21  s      Ryd( 3s)     0.00008       2.15872
 539    H 21  px     Ryd( 3p)     0.00021       4.31696
 540    H 21  px     Ryd( 2p)     0.00005       2.16487
 541    H 21  py     Ryd( 3p)     0.00012       4.26369
 542    H 21  py     Ryd( 2p)     0.00005       1.81365
 543    H 21  pz     Ryd( 3p)     0.00002       3.87431
 544    H 21  pz     Ryd( 2p)     0.00008       1.24296
 545    H 21  dxy    Ryd( 3d)     0.00005       4.49713
 546    H 21  dxz    Ryd( 3d)     0.00001       4.03137
 547    H 21  dyz    Ryd( 3d)     0.00001       3.72743
 548    H 21  dx2y2  Ryd( 3d)     0.00004       4.51099
 549    H 21  dz2    Ryd( 3d)     0.00001       4.01690

 550    H 22  s      Val( 1s)     0.79203       0.08210
 551    H 22  s      Ryd( 2s)     0.00064       0.84051
 552    H 22  s      Ryd( 3s)     0.00010       2.04641
 553    H 22  px     Ryd( 3p)     0.00005       4.30794
 554    H 22  px     Ryd( 2p)     0.00010       1.52060
 555    H 22  py     Ryd( 3p)     0.00025       4.21078
 556    H 22  py     Ryd( 2p)     0.00004       2.74910
 557    H 22  pz     Ryd( 3p)     0.00006       3.97534
 558    H 22  pz     Ryd( 2p)     0.00006       1.16628
 559    H 22  dxy    Ryd( 3d)     0.00003       4.53359
 560    H 22  dxz    Ryd( 3d)     0.00000       3.54401
 561    H 22  dyz    Ryd( 3d)     0.00001       4.21548
 562    H 22  dx2y2  Ryd( 3d)     0.00005       4.49763
 563    H 22  dz2    Ryd( 3d)     0.00001       4.03126

 564    H 23  s      Val( 1s)     0.81782       0.05963
 565    H 23  s      Ryd( 2s)     0.00062       0.77310
 566    H 23  s      Ryd( 3s)     0.00010       2.01945
 567    H 23  px     Ryd( 3p)     0.00023       4.26729
 568    H 23  px     Ryd( 2p)     0.00006       2.11991
 569    H 23  py     Ryd( 3p)     0.00011       4.28762
 570    H 23  py     Ryd( 2p)     0.00004       1.82637
 571    H 23  pz     Ryd( 3p)     0.00003       3.89636
 572    H 23  pz     Ryd( 2p)     0.00008       1.18497
 573    H 23  dxy    Ryd( 3d)     0.00006       4.45033
 574    H 23  dxz    Ryd( 3d)     0.00001       3.97437
 575    H 23  dyz    Ryd( 3d)     0.00001       3.74313
 576    H 23  dx2y2  Ryd( 3d)     0.00002       4.47881
 577    H 23  dz2    Ryd( 3d)     0.00001       4.00537

 578    H 24  s      Val( 1s)     0.78267       0.08366
 579    H 24  s      Ryd( 2s)     0.00029       0.69732
 580    H 24  s      Ryd( 3s)     0.00009       2.09894
 581    H 24  px     Ryd( 3p)     0.00021       4.09132
 582    H 24  px     Ryd( 2p)     0.00006       2.45547
 583    H 24  py     Ryd( 3p)     0.00008       4.29153
 584    H 24  py     Ryd( 2p)     0.00003       1.71193
 585    H 24  pz     Ryd( 3p)     0.00005       3.98584
 586    H 24  pz     Ryd( 2p)     0.00013       1.16126
 587    H 24  dxy    Ryd( 3d)     0.00004       4.48651
 588    H 24  dxz    Ryd( 3d)     0.00002       4.08909
 589    H 24  dyz    Ryd( 3d)     0.00001       3.65671
 590    H 24  dx2y2  Ryd( 3d)     0.00004       4.47698
 591    H 24  dz2    Ryd( 3d)     0.00001       4.00095

 592    H 25  s      Val( 1s)     0.78762       0.08061
 593    H 25  s      Ryd( 2s)     0.00050       0.73230
 594    H 25  s      Ryd( 3s)     0.00009       2.12859
 595    H 25  px     Ryd( 3p)     0.00007       4.21258
 596    H 25  px     Ryd( 2p)     0.00005       1.58900
 597    H 25  py     Ryd( 3p)     0.00026       4.34128
 598    H 25  py     Ryd( 2p)     0.00005       2.39479
 599    H 25  pz     Ryd( 3p)     0.00002       3.85410
 600    H 25  pz     Ryd( 2p)     0.00006       1.26000
 601    H 25  dxy    Ryd( 3d)     0.00003       4.51278
 602    H 25  dxz    Ryd( 3d)     0.00000       3.53420
 603    H 25  dyz    Ryd( 3d)     0.00002       4.21849
 604    H 25  dx2y2  Ryd( 3d)     0.00005       4.47374
 605    H 25  dz2    Ryd( 3d)     0.00001       4.02121

 606    H 26  s      Val( 1s)     0.77320       0.09927
 607    H 26  s      Ryd( 2s)     0.00080       1.03228
 608    H 26  s      Ryd( 3s)     0.00010       2.04007
 609    H 26  px     Ryd( 3p)     0.00020       4.38896
 610    H 26  px     Ryd( 2p)     0.00008       2.32283
 611    H 26  py     Ryd( 3p)     0.00012       4.35991
 612    H 26  py     Ryd( 2p)     0.00010       1.87606
 613    H 26  pz     Ryd( 3p)     0.00005       3.98157
 614    H 26  pz     Ryd( 2p)     0.00004       1.19069
 615    H 26  dxy    Ryd( 3d)     0.00005       4.50627
 616    H 26  dxz    Ryd( 3d)     0.00001       4.05521
 617    H 26  dyz    Ryd( 3d)     0.00001       3.72245
 618    H 26  dx2y2  Ryd( 3d)     0.00004       4.54853
 619    H 26  dz2    Ryd( 3d)     0.00001       4.03965


 Summary of Natural Population Analysis:

                                     Natural Population
             Natural    ---------------------------------------------
  Atom No    Charge        Core      Valence    Rydberg      Total
 --------------------------------------------------------------------
    C  1    0.15064      1.99999     3.82440    0.02497     5.84936
    C  2   -0.18087      1.99999     4.14992    0.03096     6.18087
    N  3   -0.42002      1.99999     5.38889    0.03114     7.42002
    C  4   -0.12880      1.99999     4.09997    0.02884     6.12880
    C  5   -0.06282      1.99999     4.04343    0.01940     6.06282
    C  6   -0.24476      1.99999     4.22636    0.01842     6.24476
    C  7   -0.21819      1.99999     4.20063    0.01757     6.21819
    C  8   -0.29008      1.99999     4.27024    0.01984     6.29008
    C  9   -0.21994      1.99999     4.20218    0.01777     6.21994
    C 10   -0.25025      1.99999     4.23232    0.01793     6.25025
    N 11   -0.51402      1.99999     5.48104    0.03299     7.51402
    C 12    0.03342      1.99999     3.94121    0.02538     5.96658
    C 13   -0.36089      1.99999     4.34051    0.02039     6.36089
    C 14   -0.18659      1.99999     4.16859    0.01800     6.18659
    C 15   -0.28719      1.99999     4.26855    0.01865     6.28719
    H 16    0.14792      0.00000     0.84788    0.00420     0.85208
    H 17    0.14067      0.00000     0.85519    0.00413     0.85933
    H 18    0.22063      0.00000     0.77770    0.00167     0.77937
    H 19    0.20931      0.00000     0.78954    0.00115     0.79069
    H 20    0.21167      0.00000     0.78718    0.00114     0.78833
    H 21    0.21016      0.00000     0.78870    0.00114     0.78984
    H 22    0.20655      0.00000     0.79203    0.00142     0.79345
    H 23    0.18081      0.00000     0.81782    0.00137     0.81919
    H 24    0.21626      0.00000     0.78267    0.00106     0.78374
    H 25    0.21116      0.00000     0.78762    0.00122     0.78884
    H 26    0.22520      0.00000     0.77320    0.00160     0.77480
 ====================================================================
 * Total * -1.00000     29.99987    73.63778    0.36235   104.00000

                                 Natural Population
 ---------------------------------------------------------
   Core                      29.99987 ( 99.9996% of   30)
   Valence                   73.63778 ( 99.5105% of   74)
   Natural Minimal Basis    103.63765 ( 99.6516% of  104)
   Natural Rydberg Basis      0.36235 (  0.3484% of  104)
 ---------------------------------------------------------

    Atom No         Natural Electron Configuration
 ----------------------------------------------------------------------------
      C  1      [core]2s( 0.91)2p( 2.92)3p( 0.02)
      C  2      [core]2s( 0.93)2p( 3.22)3s( 0.01)3p( 0.02)
      N  3      [core]2s( 1.33)2p( 4.06)3p( 0.01)3d( 0.02)
      C  4      [core]2s( 0.92)2p( 3.18)3s( 0.01)3p( 0.02)
      C  5      [core]2s( 0.93)2p( 3.11)3p( 0.01)
      C  6      [core]2s( 0.98)2p( 3.25)3p( 0.01)
      C  7      [core]2s( 0.98)2p( 3.22)3p( 0.01)
      C  8      [core]2s( 0.98)2p( 3.29)3p( 0.01)
      C  9      [core]2s( 0.98)2p( 3.22)3p( 0.01)
      C 10      [core]2s( 0.98)2p( 3.26)3p( 0.01)
      N 11      [core]2s( 1.37)2p( 4.12)3p( 0.01)3d( 0.02)
      C 12      [core]2s( 0.95)2p( 3.00)3p( 0.02)
      C 13      [core]2s( 0.99)2p( 3.35)3p( 0.01)
      C 14      [core]2s( 0.99)2p( 3.18)3p( 0.01)
      C 15      [core]2s( 0.99)2p( 3.28)3p( 0.01)
      H 16            1s( 0.85)
      H 17            1s( 0.86)
      H 18            1s( 0.78)
      H 19            1s( 0.79)
      H 20            1s( 0.79)
      H 21            1s( 0.79)
      H 22            1s( 0.79)
      H 23            1s( 0.82)
      H 24            1s( 0.78)
      H 25            1s( 0.79)
      H 26            1s( 0.77)


 NATURAL BOND ORBITAL ANALYSIS:

                            Occupancies       Lewis Structure    Low   High
         Max    Occ     -------------------  -----------------   occ   occ
  Cycle  Ctr   Thresh    Lewis   non-Lewis     CR  BD  nC  LP    (L)   (NL)
 ============================================================================
    1     2     1.90    96.32005   7.67995     15  27   0  10     9      7
    2     2     1.88    96.42128   7.57872     15  27   0  10     8      7
    3     2     1.85    96.99915   7.00085     15  28   0   9     7      7
    4     2     1.81    96.99915   7.00085     15  28   0   9     7      7
    5     2     1.78    97.52124   6.47876     15  29   0   8     6      7
    6     2     1.74    98.21741   5.78259     15  30   0   7     5      7
    7     2     1.72    98.90433   5.09567     15  31   0   6     4      7
    8     2     1.71    99.56656   4.43344     15  32   0   5     3      7
    9     2     1.70    99.56656   4.43344     15  32   0   5     3      7
   10     2     1.69    99.56656   4.43344     15  32   0   5     3      7
   11     2     1.68   100.04252   3.95748     15  33   0   4     2      7
   12     2     1.67   100.04252   3.95748     15  33   0   4     2      7
   13     2     1.65   100.04252   3.95748     15  33   0   4     2      7
   14     2     1.60   100.54990   3.45010     15  34   0   3     1      7
   15     2     1.59   100.54990   3.45010     15  34   0   3     1      7
   16     2     1.58   100.54990   3.45010     15  34   0   3     1      7
   17     2     1.53   100.54990   3.45010     15  34   0   3     1      7
   18     2     1.52   100.54990   3.45010     15  34   0   3     1      7
   19     2     1.60   100.54990   3.45010     15  34   0   3     1      7
 ----------------------------------------------------------------------------

 Strongly delocalized structure accepted

 -------------------------------------------------------
   Core                     29.99987 (100.000% of  30)
   Valence Lewis            70.55003 ( 95.338% of  74)
  ==================      =============================
   Total Lewis             100.54990 ( 96.683% of 104)
  -----------------------------------------------------
   Valence non-Lewis         3.25344 (  3.128% of 104)
   Rydberg non-Lewis         0.19666 (  0.189% of 104)
  ==================      =============================
   Total non-Lewis           3.45010 (  3.317% of 104)
 -------------------------------------------------------


     (Occupancy)   Bond orbital / Coefficients / Hybrids
 ------------------ Lewis ------------------------------------------------------
   1. (1.99999) CR ( 1) C  1            s(100.00%)
                                         1.0000  0.0000  0.0000  0.0000  0.0000
                                         0.0000  0.0000  0.0000  0.0000  0.0000
                                         0.0000  0.0000  0.0000  0.0000  0.0000
                                         0.0000  0.0000  0.0000  0.0000  0.0000
                                         0.0000  0.0000  0.0000  0.0000  0.0000
                                         0.0000  0.0000  0.0000  0.0000  0.0000
                                         0.0000
   2. (1.99999) CR ( 1) C  2            s(100.00%)
                                         1.0000  0.0000  0.0000  0.0000  0.0000
                                         0.0000  0.0000  0.0000  0.0000  0.0000
                                         0.0000  0.0000  0.0000  0.0000  0.0000
                                         0.0000  0.0000  0.0000  0.0000  0.0000
                                         0.0000  0.0000  0.0000  0.0000  0.0000
                                         0.0000  0.0000  0.0000  0.0000  0.0000
                                         0.0000
   3. (1.99999) CR ( 1) N  3            s(100.00%)
                                         1.0000  0.0000  0.0000  0.0000  0.0000
                                         0.0000  0.0000  0.0000  0.0000  0.0000
                                         0.0000  0.0000  0.0000  0.0000  0.0000
                                         0.0000  0.0000  0.0000  0.0000  0.0000
                                         0.0000  0.0000  0.0000  0.0000  0.0000
                                         0.0000  0.0000  0.0000  0.0000  0.0000
                                         0.0000
   4. (1.99999) CR ( 1) C  4            s(100.00%)
                                         1.0000  0.0000  0.0000  0.0000  0.0000
                                         0.0000  0.0000  0.0000  0.0000  0.0000
                                         0.0000  0.0000  0.0000  0.0000  0.0000
                                         0.0000  0.0000  0.0000  0.0000  0.0000
                                         0.0000  0.0000  0.0000  0.0000  0.0000
                                         0.0000  0.0000  0.0000  0.0000  0.0000
                                         0.0000
   5. (1.99999) CR ( 1) C  5            s(100.00%)
                                         1.0000  0.0000  0.0000  0.0000  0.0000
                                         0.0000  0.0000  0.0000  0.0000  0.0000
                                         0.0000  0.0000  0.0000  0.0000  0.0000
                                         0.0000  0.0000  0.0000  0.0000  0.0000
                                         0.0000  0.0000  0.0000  0.0000  0.0000
                                         0.0000  0.0000  0.0000  0.0000  0.0000
                                         0.0000
   6. (1.99999) CR ( 1) C  6            s(100.00%)
                                         1.0000  0.0000  0.0000  0.0000  0.0000
                                         0.0000  0.0000  0.0000  0.0000  0.0000
                                         0.0000  0.0000  0.0000  0.0000  0.0000
                                         0.0000  0.0000  0.0000  0.0000  0.0000
                                         0.0000  0.0000  0.0000  0.0000  0.0000
                                         0.0000  0.0000  0.0000  0.0000  0.0000
                                         0.0000
   7. (1.99999) CR ( 1) C  7            s(100.00%)
                                         1.0000  0.0000  0.0000  0.0000  0.0000
                                         0.0000  0.0000  0.0000  0.0000  0.0000
                                         0.0000  0.0000  0.0000  0.0000  0.0000
                                         0.0000  0.0000  0.0000  0.0000  0.0000
                                         0.0000  0.0000  0.0000  0.0000  0.0000
                                         0.0000  0.0000  0.0000  0.0000  0.0000
                                         0.0000
   8. (1.99999) CR ( 1) C  8            s(100.00%)
                                         1.0000  0.0000  0.0000  0.0000  0.0000
                                         0.0000  0.0000  0.0000  0.0000  0.0000
                                         0.0000  0.0000  0.0000  0.0000  0.0000
                                         0.0000  0.0000  0.0000  0.0000  0.0000
                                         0.0000  0.0000  0.0000  0.0000  0.0000
                                         0.0000  0.0000  0.0000  0.0000  0.0000
                                         0.0000
   9. (1.99999) CR ( 1) C  9            s(100.00%)
                                         1.0000  0.0000  0.0000  0.0000  0.0000
                                         0.0000  0.0000  0.0000  0.0000  0.0000
                                         0.0000  0.0000  0.0000  0.0000  0.0000
                                         0.0000  0.0000  0.0000  0.0000  0.0000
                                         0.0000  0.0000  0.0000  0.0000  0.0000
                                         0.0000  0.0000  0.0000  0.0000  0.0000
                                         0.0000
  10. (1.99999) CR ( 1) C 10            s(100.00%)
                                         1.0000  0.0000  0.0000  0.0000  0.0000
                                         0.0000  0.0000  0.0000  0.0000  0.0000
                                         0.0000  0.0000  0.0000  0.0000  0.0000
                                         0.0000  0.0000  0.0000  0.0000  0.0000
                                         0.0000  0.0000  0.0000  0.0000  0.0000
                                         0.0000  0.0000  0.0000  0.0000  0.0000
                                         0.0000
  11. (1.99999) CR ( 1) N 11            s(100.00%)
                                         1.0000  0.0000  0.0000  0.0000  0.0000
                                         0.0000  0.0000  0.0000  0.0000  0.0000
                                         0.0000  0.0000  0.0000  0.0000  0.0000
                                         0.0000  0.0000  0.0000  0.0000  0.0000
                                         0.0000  0.0000  0.0000  0.0000  0.0000
                                         0.0000  0.0000  0.0000  0.0000  0.0000
                                         0.0000
  12. (1.99999) CR ( 1) C 12            s(100.00%)
                                         1.0000  0.0000  0.0000  0.0000  0.0000
                                         0.0000  0.0000  0.0000  0.0000  0.0000
                                         0.0000  0.0000  0.0000  0.0000  0.0000
                                         0.0000  0.0000  0.0000  0.0000  0.0000
                                         0.0000  0.0000  0.0000  0.0000  0.0000
                                         0.0000  0.0000  0.0000  0.0000  0.0000
                                         0.0000
  13. (1.99999) CR ( 1) C 13            s(100.00%)
                                         1.0000  0.0000  0.0000  0.0000  0.0000
                                         0.0000  0.0000  0.0000  0.0000  0.0000
                                         0.0000  0.0000  0.0000  0.0000  0.0000
                                         0.0000  0.0000  0.0000  0.0000  0.0000
                                         0.0000  0.0000  0.0000  0.0000  0.0000
                                         0.0000  0.0000  0.0000  0.0000  0.0000
                                         0.0000
  14. (1.99999) CR ( 1) C 14            s(100.00%)
                                         1.0000  0.0000  0.0000  0.0000  0.0000
                                         0.0000  0.0000  0.0000  0.0000  0.0000
                                         0.0000  0.0000  0.0000  0.0000  0.0000
                                         0.0000  0.0000  0.0000  0.0000  0.0000
                                         0.0000  0.0000  0.0000  0.0000  0.0000
                                         0.0000  0.0000  0.0000  0.0000  0.0000
                                         0.0000
  15. (1.99999) CR ( 1) C 15            s(100.00%)
                                         1.0000  0.0000  0.0000  0.0000  0.0000
                                         0.0000  0.0000  0.0000  0.0000  0.0000
                                         0.0000  0.0000  0.0000  0.0000  0.0000
                                         0.0000  0.0000  0.0000  0.0000  0.0000
                                         0.0000  0.0000  0.0000  0.0000  0.0000
                                         0.0000  0.0000  0.0000  0.0000  0.0000
                                         0.0000
  16. (1.20191) LP ( 1) C  2            s(  0.00%)p 1.00( 99.94%)d 0.00(  0.02%)
                                                  f 0.00(  0.04%)
                                         0.0000  0.0000  0.0000  0.0000  0.0000
                                         0.0000  0.0000  0.0000  0.0002  0.0000
                                         0.0000  0.9981  0.0539 -0.0148  0.0000
                                         0.0000 -0.0012 -0.0037  0.0136 -0.0033
                                         0.0000  0.0000  0.0000  0.0000 -0.0193
                                         0.0000  0.0000  0.0024 -0.0006  0.0000
                                         0.0000
  17. (1.88778) LP ( 1) N  3            s( 24.78%)p 3.03( 75.05%)d 0.01(  0.17%)
                                                  f 0.00(  0.00%)
                                         0.0000  0.4970 -0.0282 -0.0023  0.0000
                                         0.0035 -0.0001  0.0002  0.8658  0.0279
                                         0.0049 -0.0001  0.0000  0.0000 -0.0003
                                         0.0000  0.0000  0.0000  0.0000  0.0000
                                         0.0342 -0.0030  0.0225 -0.0007  0.0000
                                         0.0000 -0.0044  0.0000  0.0000 -0.0002
                                         0.0049
  18. (1.91638) LP ( 1) N 11            s( 29.27%)p 2.41( 70.53%)d 0.01(  0.20%)
                                                  f 0.00(  0.00%)
                                         0.0000  0.5408 -0.0139 -0.0022  0.0000
                                        -0.0380 -0.0014  0.0017 -0.8384 -0.0315
                                        -0.0053  0.0001  0.0000  0.0000 -0.0037
                                        -0.0001  0.0000  0.0000  0.0000  0.0000
                                         0.0359 -0.0019  0.0257 -0.0005  0.0000
                                         0.0001  0.0044  0.0000  0.0000  0.0002
                                        -0.0021
  19. (1.98161) BD ( 1) C  1- C  2
               ( 51.56%)   0.7180* C  1 s( 34.58%)p 1.89( 65.30%)d 0.00(  0.06%)
                                                  f 0.00(  0.05%)
                                         0.0000  0.5880 -0.0068 -0.0014  0.0003
                                        -0.7040 -0.0090 -0.0046 -0.3966  0.0068
                                         0.0001  0.0001  0.0000  0.0000  0.0185
                                        -0.0007  0.0000  0.0000  0.0000  0.0000
                                         0.0134 -0.0034 -0.0107 -0.0008  0.0000
                                         0.0144  0.0082  0.0000  0.0000 -0.0018
                                        -0.0138
               ( 48.44%)   0.6960* C  2 s( 35.51%)p 1.81( 64.35%)d 0.00(  0.10%)
                                                  f 0.00(  0.04%)
                                         0.0000  0.5959 -0.0023 -0.0072  0.0000
                                         0.6934 -0.0220  0.0007  0.4029 -0.0022
                                         0.0014 -0.0001  0.0000  0.0000  0.0242
                                        -0.0056  0.0000  0.0000  0.0000  0.0000
                                         0.0086  0.0001 -0.0162  0.0019  0.0000
                                        -0.0117 -0.0072  0.0000  0.0000  0.0048
                                         0.0132
  20. (1.98433) BD ( 1) C  1- N 11
               ( 42.02%)   0.6482* C  1 s( 31.16%)p 2.21( 68.76%)d 0.00(  0.06%)
                                                  f 0.00(  0.03%)
                                         0.0000  0.5577  0.0224  0.0024 -0.0004
                                         0.7082 -0.0069  0.0021 -0.4298  0.0350
                                         0.0030  0.0001  0.0000  0.0000 -0.0117
                                        -0.0143  0.0000  0.0000  0.0000  0.0000
                                         0.0077  0.0025 -0.0127 -0.0013  0.0000
                                        -0.0121  0.0067  0.0000  0.0000 -0.0002
                                        -0.0111
               ( 57.98%)   0.7615* N 11 s( 34.23%)p 1.91( 65.34%)d 0.01(  0.41%)
                                                  f 0.00(  0.02%)
                                         0.0000  0.5851  0.0029  0.0024 -0.0001
                                        -0.6972  0.0266  0.0023  0.4080  0.0007
                                        -0.0089 -0.0001  0.0000  0.0000 -0.0509
                                        -0.0033  0.0000  0.0000  0.0000  0.0000
                                         0.0017  0.0015 -0.0379  0.0010  0.0000
                                         0.0083 -0.0057  0.0000  0.0000 -0.0055
                                         0.0106
  21. (1.68044) BD ( 2) C  1- N 11
               ( 36.17%)   0.6014* C  1 s(  0.00%)p 1.00( 99.90%)d 0.00(  0.07%)
                                                  f 0.00(  0.04%)
                                         0.0000  0.0000  0.0000  0.0000  0.0000
                                         0.0000  0.0000  0.0000  0.0001  0.0000
                                         0.0000  0.9995  0.0022 -0.0055  0.0000
                                         0.0000  0.0250 -0.0032 -0.0064 -0.0036
                                         0.0000  0.0000  0.0000  0.0000 -0.0188
                                         0.0000  0.0000 -0.0001  0.0018  0.0000
                                         0.0000
               ( 63.83%)   0.7989* N 11 s(  0.00%)p 1.00( 99.67%)d 0.00(  0.30%)
                                                  f 0.00(  0.02%)
                                         0.0000  0.0000  0.0000  0.0000  0.0000
                                         0.0000  0.0000  0.0000  0.0001  0.0000
                                         0.0000  0.9983 -0.0103  0.0018  0.0000
                                         0.0000  0.0024 -0.0029  0.0550  0.0014
                                         0.0000  0.0000  0.0000  0.0000 -0.0125
                                         0.0000  0.0000  0.0077 -0.0005  0.0000
                                         0.0000
  22. (1.98173) BD ( 1) C  1- C 15
               ( 50.14%)   0.7081* C  1 s( 34.19%)p 1.92( 65.71%)d 0.00(  0.05%)
                                                  f 0.00(  0.04%)
                                         0.0000  0.5846 -0.0101  0.0005 -0.0002
                                         0.0318  0.0162 -0.0005  0.8098 -0.0076
                                         0.0027 -0.0001  0.0000  0.0000  0.0011
                                        -0.0002  0.0000  0.0000  0.0000  0.0000
                                        -0.0199 -0.0011 -0.0115  0.0006  0.0000
                                        -0.0012 -0.0162  0.0000  0.0000 -0.0012
                                        -0.0133
               ( 49.86%)   0.7061* C 15 s( 33.62%)p 1.97( 66.19%)d 0.00(  0.14%)
                                                  f 0.00(  0.05%)
                                         0.0000  0.5798 -0.0085 -0.0026  0.0001
                                        -0.0466  0.0143  0.0023 -0.8120  0.0139
                                        -0.0040  0.0001  0.0000  0.0000 -0.0037
                                         0.0012  0.0000  0.0000  0.0000  0.0000
                                        -0.0298 -0.0020 -0.0219  0.0003  0.0000
                                        -0.0005  0.0162  0.0000  0.0000  0.0070
                                         0.0130
  23. (1.98637) BD ( 1) C  2- N  3
               ( 40.50%)   0.6364* C  2 s( 34.58%)p 1.89( 65.33%)d 0.00(  0.06%)
                                                  f 0.00(  0.03%)
                                         0.0000  0.5864  0.0441  0.0016 -0.0004
                                        -0.7169  0.0478  0.0072  0.3690 -0.0271
                                        -0.0027  0.0000  0.0000  0.0000 -0.0119
                                        -0.0127  0.0000  0.0000  0.0000  0.0000
                                         0.0058  0.0061 -0.0139 -0.0031  0.0000
                                         0.0111 -0.0052  0.0000  0.0000 -0.0043
                                         0.0120
               ( 59.50%)   0.7714* N  3 s( 37.17%)p 1.68( 62.41%)d 0.01(  0.39%)
                                                  f 0.00(  0.03%)
                                         0.0000  0.6093  0.0201  0.0018  0.0000
                                         0.7073 -0.0149 -0.0028 -0.3514 -0.0003
                                         0.0056  0.0000  0.0000  0.0000 -0.0488
                                        -0.0017  0.0000  0.0000  0.0000  0.0000
                                         0.0127  0.0008 -0.0371  0.0025  0.0000
                                        -0.0097  0.0052  0.0000  0.0000  0.0086
                                        -0.0115
  24. (1.98462) BD ( 1) C  2- H 16
               ( 58.49%)   0.7648* C  2 s( 30.01%)p 2.33( 69.88%)d 0.00(  0.08%)
                                                  f 0.00(  0.03%)
                                         0.0000  0.5470 -0.0299  0.0051  0.0003
                                         0.0152 -0.0061  0.0034 -0.8355  0.0061
                                        -0.0204  0.0001  0.0000  0.0000 -0.0036
                                         0.0014  0.0000  0.0000  0.0000  0.0000
                                        -0.0216 -0.0003 -0.0161  0.0047  0.0000
                                        -0.0009  0.0155  0.0000  0.0000 -0.0026
                                         0.0096
               ( 41.51%)   0.6443* H 16 s( 99.96%)p 0.00(  0.03%)d 0.00(  0.01%)
                                         0.9998 -0.0096  0.0007 -0.0032  0.0002
                                         0.0152  0.0077  0.0000  0.0000 -0.0007
                                         0.0000  0.0000 -0.0067 -0.0025
  25. (1.98741) BD ( 1) N  3- C  4
               ( 59.42%)   0.7709* N  3 s( 37.93%)p 1.62( 61.64%)d 0.01(  0.40%)
                                                  f 0.00(  0.03%)
                                         0.0000  0.6156  0.0188  0.0010  0.0000
                                        -0.7029  0.0142  0.0025 -0.3494  0.0006
                                         0.0052  0.0001  0.0000  0.0000  0.0491
                                         0.0018  0.0000  0.0000  0.0000  0.0000
                                         0.0133  0.0008 -0.0372  0.0025  0.0000
                                         0.0097  0.0053  0.0000  0.0000 -0.0083
                                        -0.0117
               ( 40.58%)   0.6370* C  4 s( 34.93%)p 1.86( 64.98%)d 0.00(  0.06%)
                                                  f 0.00(  0.03%)
                                         0.0000  0.5895  0.0427  0.0012 -0.0006
                                         0.7128 -0.0467 -0.0070  0.3726 -0.0259
                                        -0.0029 -0.0001  0.0000  0.0000  0.0121
                                         0.0133  0.0000  0.0000  0.0000  0.0000
                                         0.0062  0.0061 -0.0133 -0.0037  0.0000
                                        -0.0115 -0.0052  0.0000  0.0000  0.0041
                                         0.0124
  26. (1.85296) BD ( 2) N  3- C  4
               ( 49.67%)   0.7048* N  3 s(  0.00%)p 1.00( 99.72%)d 0.00(  0.26%)
                                                  f 0.00(  0.03%)
                                         0.0000  0.0000  0.0000  0.0000  0.0000
                                         0.0000  0.0000  0.0000  0.0001  0.0000
                                         0.0000  0.9984 -0.0195  0.0012  0.0000
                                         0.0000 -0.0133 -0.0065 -0.0483 -0.0009
                                         0.0000  0.0000  0.0000  0.0000 -0.0126
                                         0.0000  0.0000  0.0101  0.0013  0.0000
                                         0.0000
               ( 50.33%)   0.7094* C  4 s(  0.00%)p 1.00( 99.93%)d 0.00(  0.04%)
                                                  f 0.00(  0.03%)
                                         0.0000  0.0000  0.0000  0.0000  0.0000
                                         0.0000  0.0000  0.0000  0.0001  0.0000
                                         0.0000  0.9992  0.0273 -0.0124  0.0000
                                         0.0000  0.0142  0.0013  0.0135 -0.0009
                                         0.0000  0.0000  0.0000  0.0000 -0.0185
                                         0.0000  0.0000  0.0028 -0.0003  0.0000
                                         0.0000
  27. (1.98020) BD ( 1) C  4- C  5
               ( 48.24%)   0.6946* C  4 s( 35.75%)p 1.79( 64.13%)d 0.00(  0.08%)
                                                  f 0.00(  0.04%)
                                         0.0000  0.5979 -0.0007 -0.0071  0.0002
                                        -0.6982  0.0174 -0.0023  0.3918 -0.0019
                                         0.0008  0.0000  0.0000  0.0000 -0.0218
                                         0.0044  0.0000  0.0000  0.0000  0.0000
                                         0.0088 -0.0006 -0.0155  0.0025  0.0000
                                         0.0116 -0.0068  0.0000  0.0000 -0.0053
                                         0.0128
               ( 51.76%)   0.7194* C  5 s( 33.70%)p 1.96( 66.19%)d 0.00(  0.06%)
                                                  f 0.00(  0.05%)
                                         0.0000  0.5805 -0.0013  0.0000  0.0001
                                         0.7127  0.0036  0.0061 -0.3924  0.0038
                                        -0.0021  0.0000  0.0000  0.0000 -0.0176
                                        -0.0006  0.0000  0.0000  0.0000  0.0000
                                         0.0118 -0.0007 -0.0113 -0.0008  0.0000
                                        -0.0154  0.0085  0.0000  0.0000  0.0015
                                        -0.0153
  28. (1.98414) BD ( 1) C  4- H 17
               ( 58.15%)   0.7626* C  4 s( 29.42%)p 2.40( 70.47%)d 0.00(  0.08%)
                                                  f 0.00(  0.03%)
                                         0.0000  0.5414 -0.0315  0.0057  0.0003
                                        -0.0072  0.0041 -0.0031 -0.8392  0.0012
                                        -0.0202  0.0001  0.0000  0.0000  0.0038
                                        -0.0029  0.0000  0.0000  0.0000  0.0000
                                        -0.0219 -0.0001 -0.0164  0.0060  0.0000
                                         0.0007  0.0156  0.0000  0.0000  0.0024
                                         0.0092
               ( 41.85%)   0.6469* H 17 s( 99.96%)p 0.00(  0.03%)d 0.00(  0.00%)
                                         0.9998 -0.0097  0.0007 -0.0001  0.0020
                                         0.0160  0.0075  0.0000  0.0000  0.0005
                                         0.0000  0.0000 -0.0064 -0.0025
  29. (1.97640) BD ( 1) C  5- C  6
               ( 50.81%)   0.7128* C  5 s( 33.10%)p 2.02( 66.79%)d 0.00(  0.06%)
                                                  f 0.00(  0.05%)
                                         0.0000  0.5753  0.0005  0.0006 -0.0001
                                        -0.0188 -0.0132 -0.0027  0.8169 -0.0077
                                         0.0001 -0.0001  0.0000  0.0000 -0.0044
                                         0.0021  0.0000  0.0000  0.0000  0.0000
                                        -0.0193 -0.0021 -0.0148  0.0019  0.0000
                                         0.0018 -0.0177  0.0000  0.0000  0.0018
                                        -0.0134
               ( 49.19%)   0.7014* C  6 s( 34.86%)p 1.86( 64.97%)d 0.00(  0.12%)
                                                  f 0.00(  0.05%)
                                         0.0000  0.5904 -0.0022 -0.0029  0.0002
                                         0.0566 -0.0160 -0.0014 -0.8037  0.0164
                                        -0.0027  0.0001  0.0000  0.0000  0.0029
                                        -0.0024  0.0000  0.0000  0.0000  0.0000
                                        -0.0271 -0.0028 -0.0212  0.0003  0.0000
                                         0.0002  0.0164  0.0000  0.0000 -0.0070
                                         0.0135
  30. (1.97923) BD ( 1) C  5- C 10
               ( 50.74%)   0.7123* C  5 s( 33.08%)p 2.02( 66.81%)d 0.00(  0.07%)
                                                  f 0.00(  0.05%)
                                         0.0000  0.5751  0.0025  0.0002 -0.0001
                                        -0.7004 -0.0045 -0.0018 -0.4210  0.0160
                                         0.0019  0.0001  0.0000  0.0000  0.0171
                                         0.0021  0.0000  0.0000  0.0000  0.0000
                                         0.0110 -0.0001 -0.0158  0.0028  0.0000
                                         0.0158  0.0083  0.0000  0.0000 -0.0004
                                        -0.0130
               ( 49.26%)   0.7018* C 10 s( 35.59%)p 1.81( 64.24%)d 0.00(  0.11%)
                                                  f 0.00(  0.05%)
                                         0.0000  0.5966 -0.0007 -0.0025  0.0002
                                         0.7055 -0.0255  0.0035  0.3796  0.0046
                                         0.0033 -0.0001  0.0000  0.0000  0.0246
                                         0.0014  0.0000  0.0000  0.0000  0.0000
                                         0.0094  0.0028 -0.0210  0.0007  0.0000
                                        -0.0137 -0.0087  0.0000  0.0000  0.0053
                                         0.0143
  31. (1.60992) BD ( 2) C  5- C 10
               ( 46.85%)   0.6845* C  5 s(  0.00%)p 1.00( 99.94%)d 0.00(  0.02%)
                                                  f 0.00(  0.04%)
                                         0.0000  0.0000  0.0000  0.0000  0.0000
                                         0.0000  0.0000  0.0000  0.0001  0.0000
                                         0.0000  0.9997  0.0078 -0.0063  0.0000
                                         0.0000 -0.0146 -0.0015 -0.0011 -0.0024
                                         0.0000  0.0000  0.0000  0.0000 -0.0191
                                         0.0000  0.0000 -0.0002 -0.0033  0.0000
                                         0.0000
               ( 53.15%)   0.7291* C 10 s(  0.00%)p 1.00( 99.94%)d 0.00(  0.03%)
                                                  f 0.00(  0.04%)
                                         0.0000  0.0000  0.0000  0.0000  0.0000
                                         0.0000  0.0000  0.0000  0.0001  0.0000
                                         0.0000  0.9994  0.0194 -0.0123  0.0000
                                         0.0000  0.0035  0.0032  0.0154  0.0006
                                         0.0000  0.0000  0.0000  0.0000 -0.0188
                                         0.0000  0.0000  0.0033 -0.0007  0.0000
                                         0.0000
  32. (1.98434) BD ( 1) C  6- C  7
               ( 49.90%)   0.7064* C  6 s( 36.75%)p 1.72( 63.07%)d 0.00(  0.12%)
                                                  f 0.00(  0.05%)
                                         0.0000  0.6060  0.0154 -0.0032 -0.0001
                                        -0.6876  0.0069 -0.0023  0.3959 -0.0335
                                        -0.0045  0.0000  0.0000  0.0000 -0.0180
                                        -0.0044  0.0000  0.0000  0.0000  0.0000
                                         0.0206 -0.0008 -0.0218  0.0012  0.0000
                                         0.0151 -0.0073  0.0000  0.0000  0.0022
                                         0.0151
               ( 50.10%)   0.7078* C  7 s( 36.57%)p 1.73( 63.26%)d 0.00(  0.12%)
                                                  f 0.00(  0.05%)
                                         0.0000  0.6047  0.0084 -0.0001  0.0000
                                         0.7082 -0.0339  0.0024 -0.3603 -0.0103
                                        -0.0046  0.0000  0.0000  0.0000 -0.0252
                                         0.0003  0.0000  0.0000  0.0000  0.0000
                                         0.0092  0.0036 -0.0216  0.0021  0.0000
                                        -0.0141  0.0088  0.0000  0.0000  0.0045
                                        -0.0143
  33. (1.72446) BD ( 2) C  6- C  7
               ( 51.15%)   0.7152* C  6 s(  0.00%)p 1.00( 99.93%)d 0.00(  0.04%)
                                                  f 0.00(  0.03%)
                                         0.0000  0.0000  0.0000  0.0000  0.0000
                                         0.0000  0.0000  0.0000  0.0001  0.0000
                                         0.0000  0.9994  0.0188 -0.0123  0.0000
                                         0.0000 -0.0186 -0.0024 -0.0029  0.0034
                                         0.0000  0.0000  0.0000  0.0000 -0.0182
                                         0.0000  0.0000 -0.0022 -0.0019  0.0000
                                         0.0000
               ( 48.85%)   0.6989* C  7 s(  0.00%)p 1.00( 99.93%)d 0.00(  0.03%)
                                                  f 0.00(  0.04%)
                                         0.0000  0.0000  0.0000  0.0000  0.0000
                                         0.0000  0.0000  0.0000  0.0001  0.0000
                                         0.0000  0.9993  0.0229 -0.0112  0.0000
                                         0.0000  0.0092  0.0039 -0.0155 -0.0001
                                         0.0000  0.0000  0.0000  0.0000 -0.0186
                                         0.0000  0.0000  0.0032  0.0008  0.0000
                                         0.0000
  34. (1.97894) BD ( 1) C  6- H 18
               ( 61.15%)   0.7820* C  6 s( 28.25%)p 2.54( 71.64%)d 0.00(  0.07%)
                                                  f 0.00(  0.04%)
                                         0.0000  0.5314 -0.0108  0.0059 -0.0001
                                         0.7221  0.0082  0.0112  0.4413  0.0058
                                         0.0027 -0.0001  0.0000  0.0000  0.0178
                                         0.0050  0.0000  0.0000  0.0000  0.0000
                                         0.0099  0.0025 -0.0144 -0.0004  0.0000
                                        -0.0145 -0.0092  0.0000  0.0000  0.0001
                                         0.0109
               ( 38.85%)   0.6233* H 18 s( 99.96%)p 0.00(  0.03%)d 0.00(  0.01%)
                                         0.9998 -0.0025 -0.0006  0.0150  0.0045
                                         0.0085  0.0028  0.0000  0.0000  0.0068
                                         0.0000  0.0000  0.0034 -0.0024
  35. (1.98365) BD ( 1) C  7- C  8
               ( 50.05%)   0.7075* C  7 s( 35.85%)p 1.78( 63.97%)d 0.00(  0.12%)
                                                  f 0.00(  0.05%)
                                         0.0000  0.5987  0.0082 -0.0020  0.0000
                                        -0.7031  0.0313  0.0009 -0.3798 -0.0112
                                        -0.0032  0.0001  0.0000  0.0000  0.0269
                                        -0.0008  0.0000  0.0000  0.0000  0.0000
                                         0.0067  0.0041 -0.0208  0.0020  0.0000
                                         0.0146  0.0094  0.0000  0.0000 -0.0039
                                        -0.0147
               ( 49.95%)   0.7067* C  8 s( 35.60%)p 1.80( 64.24%)d 0.00(  0.12%)
                                                  f 0.00(  0.05%)
                                         0.0000  0.5966  0.0077 -0.0012  0.0000
                                         0.6707 -0.0090  0.0048  0.4371 -0.0369
                                        -0.0040 -0.0001  0.0000  0.0000  0.0184
                                         0.0038  0.0000  0.0000  0.0000  0.0000
                                         0.0185 -0.0022 -0.0218  0.0020  0.0000
                                        -0.0147 -0.0076  0.0000  0.0000 -0.0037
                                         0.0133
  36. (1.97989) BD ( 1) C  7- H 19
               ( 60.53%)   0.7780* C  7 s( 27.45%)p 2.64( 72.43%)d 0.00(  0.07%)
                                                  f 0.00(  0.04%)
                                         0.0000  0.5238 -0.0145  0.0022 -0.0001
                                        -0.0140 -0.0004  0.0006  0.8508  0.0177
                                         0.0068 -0.0001  0.0000  0.0000  0.0000
                                        -0.0004  0.0000  0.0000  0.0000  0.0000
                                        -0.0230 -0.0031 -0.0123 -0.0002  0.0000
                                         0.0001 -0.0177  0.0000  0.0000  0.0009
                                        -0.0106
               ( 39.47%)   0.6283* H 19 s( 99.96%)p 0.00(  0.03%)d 0.00(  0.01%)
                                         0.9998 -0.0014 -0.0007 -0.0003 -0.0003
                                         0.0175  0.0019  0.0000  0.0000 -0.0003
                                         0.0000  0.0000 -0.0072 -0.0028
  37. (1.98361) BD ( 1) C  8- C  9
               ( 49.88%)   0.7063* C  8 s( 35.70%)p 1.80( 64.13%)d 0.00(  0.12%)
                                                  f 0.00(  0.05%)
                                         0.0000  0.5974  0.0082 -0.0013  0.0000
                                        -0.0084  0.0259  0.0059 -0.7999  0.0277
                                        -0.0014  0.0001  0.0000  0.0000 -0.0090
                                         0.0036  0.0000  0.0000  0.0000  0.0000
                                        -0.0248 -0.0025 -0.0218  0.0019  0.0000
                                        -0.0014  0.0166  0.0000  0.0000  0.0019
                                         0.0137
               ( 50.12%)   0.7079* C  9 s( 35.99%)p 1.77( 63.83%)d 0.00(  0.12%)
                                                  f 0.00(  0.05%)
                                         0.0000  0.5999  0.0079 -0.0020  0.0000
                                        -0.0588  0.0265  0.0033  0.7960 -0.0209
                                         0.0011 -0.0001  0.0000  0.0000  0.0053
                                        -0.0040  0.0000  0.0000  0.0000  0.0000
                                        -0.0272 -0.0012 -0.0211  0.0021  0.0000
                                        -0.0001 -0.0175  0.0000  0.0000  0.0057
                                        -0.0141
  38. (1.69474) BD ( 2) C  8- C  9
               ( 52.75%)   0.7263* C  8 s(  0.00%)p 1.00( 99.94%)d 0.00(  0.02%)
                                                  f 0.00(  0.04%)
                                         0.0000  0.0000  0.0000  0.0000  0.0000
                                         0.0000  0.0000  0.0000  0.0001  0.0000
                                         0.0000  0.9993  0.0254 -0.0115  0.0000
                                         0.0000  0.0088  0.0004 -0.0104 -0.0049
                                         0.0000  0.0000  0.0000  0.0000 -0.0186
                                         0.0000  0.0000 -0.0004  0.0026  0.0000
                                         0.0000
               ( 47.25%)   0.6874* C  9 s(  0.00%)p 1.00( 99.94%)d 0.00(  0.03%)
                                                  f 0.00(  0.03%)
                                         0.0000  0.0000  0.0000  0.0000  0.0000
                                         0.0000  0.0000  0.0000  0.0001  0.0000
                                         0.0000  0.9995  0.0191 -0.0106  0.0000
                                         0.0000  0.0078 -0.0005  0.0128  0.0052
                                         0.0000  0.0000  0.0000  0.0000 -0.0181
                                         0.0000  0.0000  0.0001 -0.0034  0.0000
                                         0.0000
  39. (1.98101) BD ( 1) C  8- H 20
               ( 60.64%)   0.7787* C  8 s( 28.57%)p 2.50( 71.32%)d 0.00(  0.06%)
                                                  f 0.00(  0.04%)
                                         0.0000  0.5343 -0.0135  0.0025 -0.0001
                                        -0.7400 -0.0106 -0.0097  0.4066  0.0057
                                         0.0053  0.0000  0.0000  0.0000 -0.0188
                                        -0.0027  0.0000  0.0000  0.0000  0.0000
                                         0.0121  0.0017 -0.0117 -0.0012  0.0000
                                         0.0155 -0.0085  0.0000  0.0000 -0.0006
                                         0.0115
               ( 39.36%)   0.6274* H 20 s( 99.96%)p 0.00(  0.03%)d 0.00(  0.01%)
                                         0.9998 -0.0011 -0.0008 -0.0154  0.0003
                                         0.0085  0.0002  0.0000  0.0000 -0.0061
                                         0.0000  0.0000  0.0039 -0.0031
  40. (1.98443) BD ( 1) C  9- C 10
               ( 50.01%)   0.7072* C  9 s( 36.34%)p 1.75( 63.49%)d 0.00(  0.12%)
                                                  f 0.00(  0.05%)
                                         0.0000  0.6027  0.0088 -0.0004  0.0000
                                         0.6869 -0.0091  0.0050 -0.4023  0.0345
                                         0.0008  0.0000  0.0000  0.0000 -0.0186
                                        -0.0033  0.0000  0.0000  0.0000  0.0000
                                         0.0195 -0.0018 -0.0219  0.0022  0.0000
                                        -0.0152  0.0071  0.0000  0.0000 -0.0024
                                        -0.0147
               ( 49.99%)   0.7070* C 10 s( 36.63%)p 1.73( 63.20%)d 0.00(  0.12%)
                                                  f 0.00(  0.05%)
                                         0.0000  0.6050  0.0139 -0.0024 -0.0002
                                        -0.7061  0.0322  0.0021  0.3636  0.0112
                                         0.0038  0.0000  0.0000  0.0000 -0.0258
                                        -0.0005  0.0000  0.0000  0.0000  0.0000
                                         0.0072  0.0046 -0.0212  0.0014  0.0000
                                         0.0145 -0.0087  0.0000  0.0000 -0.0046
                                         0.0145
  41. (1.97984) BD ( 1) C  9- H 21
               ( 60.56%)   0.7782* C  9 s( 27.54%)p 2.63( 72.35%)d 0.00(  0.07%)
                                                  f 0.00(  0.04%)
                                         0.0000  0.5246 -0.0145  0.0024 -0.0001
                                        -0.7225 -0.0149 -0.0059 -0.4484 -0.0097
                                        -0.0043  0.0001  0.0000  0.0000  0.0210
                                         0.0026  0.0000  0.0000  0.0000  0.0000
                                         0.0097  0.0016 -0.0121 -0.0003  0.0000
                                         0.0150  0.0095  0.0000  0.0000  0.0009
                                        -0.0108
               ( 39.44%)   0.6280* H 21 s( 99.96%)p 0.00(  0.03%)d 0.00(  0.01%)
                                         0.9998 -0.0014 -0.0007 -0.0148  0.0015
                                        -0.0093  0.0010  0.0000  0.0000  0.0064
                                         0.0000  0.0000  0.0033 -0.0028
  42. (1.97929) BD ( 1) C 10- H 22
               ( 60.41%)   0.7772* C 10 s( 27.65%)p 2.61( 72.24%)d 0.00(  0.07%)
                                                  f 0.00(  0.04%)
                                         0.0000  0.5257 -0.0114  0.0048 -0.0001
                                         0.0128  0.0025  0.0025 -0.8497 -0.0111
                                        -0.0101  0.0001  0.0000  0.0000 -0.0014
                                         0.0004  0.0000  0.0000  0.0000  0.0000
                                        -0.0203 -0.0055 -0.0148  0.0003  0.0000
                                        -0.0002  0.0176  0.0000  0.0000 -0.0009
                                         0.0104
               ( 39.59%)   0.6292* H 22 s( 99.96%)p 0.00(  0.03%)d 0.00(  0.01%)
                                         0.9998 -0.0021 -0.0007  0.0006  0.0004
                                        -0.0176  0.0001  0.0000  0.0000 -0.0003
                                         0.0000  0.0000 -0.0071 -0.0028
  43. (1.98876) BD ( 1) N 11- C 12
               ( 58.60%)   0.7655* N 11 s( 36.33%)p 1.74( 63.19%)d 0.01(  0.45%)
                                                  f 0.00(  0.02%)
                                         0.0000  0.6025  0.0189  0.0008  0.0001
                                         0.7105 -0.0324 -0.0009  0.3547  0.0103
                                        -0.0092 -0.0001  0.0000  0.0000  0.0529
                                         0.0025  0.0000  0.0000  0.0000  0.0000
                                         0.0093  0.0017 -0.0404  0.0018  0.0000
                                        -0.0090 -0.0055  0.0000  0.0000  0.0061
                                         0.0100
               ( 41.40%)   0.6434* C 12 s( 34.13%)p 1.93( 65.75%)d 0.00(  0.08%)
                                                  f 0.00(  0.04%)
                                         0.0000  0.5834  0.0311  0.0015 -0.0007
                                        -0.7126  0.0226 -0.0022 -0.3821  0.0560
                                         0.0033  0.0001  0.0000  0.0000  0.0118
                                         0.0137  0.0000  0.0000  0.0000  0.0000
                                         0.0126  0.0032 -0.0163 -0.0013  0.0000
                                         0.0130  0.0063  0.0000  0.0000  0.0013
                                        -0.0136
  44. (1.98821) BD ( 1) C 12- C 13
               ( 49.59%)   0.7042* C 12 s( 38.33%)p 1.61( 61.53%)d 0.00(  0.10%)
                                                  f 0.00(  0.05%)
                                         0.0000  0.6191 -0.0006 -0.0023  0.0003
                                         0.0868 -0.0299  0.0004  0.7787 -0.0195
                                         0.0036 -0.0001  0.0000  0.0000  0.0007
                                         0.0028  0.0000  0.0000  0.0000  0.0000
                                        -0.0260  0.0012 -0.0168  0.0027  0.0000
                                        -0.0013 -0.0158  0.0000  0.0000 -0.0077
                                        -0.0128
               ( 50.41%)   0.7100* C 13 s( 34.89%)p 1.86( 64.93%)d 0.00(  0.14%)
                                                  f 0.00(  0.04%)
                                         0.0000  0.5906  0.0033 -0.0029  0.0000
                                        -0.0442 -0.0237 -0.0076 -0.8036  0.0308
                                        -0.0007  0.0001  0.0000  0.0000  0.0131
                                        -0.0025  0.0000  0.0000  0.0000  0.0000
                                        -0.0264 -0.0022 -0.0229  0.0015  0.0000
                                         0.0026  0.0163  0.0000  0.0000  0.0003
                                         0.0132
  45. (1.70377) BD ( 2) C 12- C 13
               ( 42.76%)   0.6539* C 12 s(  0.00%)p 1.00( 99.94%)d 0.00(  0.03%)
                                                  f 0.00(  0.03%)
                                         0.0000  0.0000  0.0000  0.0000  0.0000
                                         0.0000  0.0000  0.0000  0.0001  0.0000
                                         0.0000  0.9992  0.0284 -0.0104  0.0000
                                         0.0000 -0.0036 -0.0011  0.0170  0.0021
                                         0.0000  0.0000  0.0000  0.0000 -0.0163
                                         0.0000  0.0000 -0.0002  0.0040  0.0000
                                         0.0000
               ( 57.24%)   0.7566* C 13 s(  0.00%)p 1.00( 99.94%)d 0.00(  0.02%)
                                                  f 0.00(  0.04%)
                                         0.0000  0.0000  0.0000  0.0000  0.0000
                                         0.0000  0.0000  0.0000  0.0001  0.0000
                                         0.0000  0.9991  0.0337 -0.0119  0.0000
                                         0.0000 -0.0090 -0.0011 -0.0105 -0.0034
                                         0.0000  0.0000  0.0000  0.0000 -0.0194
                                         0.0000  0.0000 -0.0007 -0.0020  0.0000
                                         0.0000
  46. (1.98033) BD ( 1) C 12- H 23
               ( 59.47%)   0.7712* C 12 s( 27.53%)p 2.63( 72.35%)d 0.00(  0.09%)
                                                  f 0.00(  0.03%)
                                         0.0000  0.5242 -0.0226  0.0012  0.0002
                                         0.6926  0.0250  0.0032 -0.4931 -0.0104
                                        -0.0037  0.0001  0.0000  0.0000 -0.0238
                                        -0.0001  0.0000  0.0000  0.0000  0.0000
                                         0.0115 -0.0029 -0.0119  0.0011  0.0000
                                        -0.0131  0.0095  0.0000  0.0000 -0.0015
                                        -0.0087
               ( 40.53%)   0.6366* H 23 s( 99.96%)p 0.00(  0.03%)d 0.00(  0.01%)
                                         0.9998 -0.0029 -0.0009  0.0154  0.0000
                                        -0.0090  0.0031  0.0000  0.0000 -0.0066
                                         0.0000  0.0000  0.0025 -0.0019
  47. (1.98325) BD ( 1) C 13- C 14
               ( 49.89%)   0.7064* C 13 s( 35.43%)p 1.82( 64.40%)d 0.00(  0.12%)
                                                  f 0.00(  0.04%)
                                         0.0000  0.5952  0.0090 -0.0013 -0.0001
                                        -0.6482  0.0098 -0.0056  0.4714 -0.0395
                                        -0.0050 -0.0001  0.0000  0.0000 -0.0187
                                        -0.0045  0.0000  0.0000  0.0000  0.0000
                                         0.0161 -0.0017 -0.0229  0.0017  0.0000
                                         0.0143 -0.0079  0.0000  0.0000  0.0050
                                         0.0124
               ( 50.11%)   0.7079* C 14 s( 35.37%)p 1.82( 64.44%)d 0.00(  0.13%)
                                                  f 0.00(  0.05%)
                                         0.0000  0.5947  0.0077 -0.0026  0.0000
                                         0.6954 -0.0303 -0.0007 -0.3997 -0.0124
                                        -0.0033  0.0000  0.0000  0.0000 -0.0279
                                         0.0001  0.0000  0.0000  0.0000  0.0000
                                         0.0051  0.0042 -0.0222  0.0028  0.0000
                                        -0.0142  0.0101  0.0000  0.0000  0.0027
                                        -0.0145
  48. (1.98125) BD ( 1) C 13- H 24
               ( 60.85%)   0.7801* C 13 s( 29.53%)p 2.38( 70.36%)d 0.00(  0.06%)
                                                  f 0.00(  0.05%)
                                         0.0000  0.5433 -0.0093  0.0040  0.0000
                                         0.7587  0.0072  0.0105  0.3575  0.0036
                                         0.0052 -0.0001  0.0000  0.0000  0.0168
                                         0.0026  0.0000  0.0000  0.0000  0.0000
                                         0.0141  0.0020 -0.0120 -0.0014  0.0000
                                        -0.0161 -0.0072  0.0000  0.0000  0.0031
                                         0.0117
               ( 39.15%)   0.6257* H 24 s( 99.96%)p 0.00(  0.03%)d 0.00(  0.01%)
                                         0.9998 -0.0011 -0.0008  0.0155 -0.0018
                                         0.0071  0.0009  0.0000  0.0000  0.0054
                                         0.0000  0.0000  0.0046 -0.0034
  49. (1.98476) BD ( 1) C 14- C 15
               ( 50.12%)   0.7080* C 14 s( 36.57%)p 1.73( 63.25%)d 0.00(  0.13%)
                                                  f 0.00(  0.05%)
                                         0.0000  0.6047  0.0096 -0.0007  0.0000
                                        -0.7150  0.0336 -0.0016 -0.3463 -0.0118
                                        -0.0045  0.0001  0.0000  0.0000  0.0252
                                         0.0003  0.0000  0.0000  0.0000  0.0000
                                         0.0103  0.0038 -0.0230  0.0024  0.0000
                                         0.0143  0.0087  0.0000  0.0000 -0.0050
                                        -0.0138
               ( 49.88%)   0.7062* C 15 s( 37.05%)p 1.69( 62.76%)d 0.00(  0.13%)
                                                  f 0.00(  0.05%)
                                         0.0000  0.6084  0.0173 -0.0048 -0.0001
                                         0.6863 -0.0096  0.0019  0.3941 -0.0347
                                        -0.0054 -0.0001  0.0000  0.0000  0.0182
                                         0.0047  0.0000  0.0000  0.0000  0.0000
                                         0.0208 -0.0002 -0.0233  0.0011  0.0000
                                        -0.0152 -0.0072  0.0000  0.0000 -0.0013
                                         0.0150
  50. (1.74999) BD ( 2) C 14- C 15
               ( 47.10%)   0.6863* C 14 s(  0.00%)p 1.00( 99.92%)d 0.00(  0.05%)
                                                  f 0.00(  0.04%)
                                         0.0000  0.0000  0.0000  0.0000  0.0000
                                         0.0000  0.0000  0.0000  0.0001  0.0000
                                         0.0000  0.9992  0.0230 -0.0116  0.0000
                                         0.0000 -0.0118 -0.0042 -0.0181  0.0010
                                         0.0000  0.0000  0.0000  0.0000 -0.0186
                                         0.0000  0.0000  0.0024 -0.0010  0.0000
                                         0.0000
               ( 52.90%)   0.7273* C 15 s(  0.00%)p 1.00( 99.92%)d 0.00(  0.05%)
                                                  f 0.00(  0.03%)
                                         0.0000  0.0000  0.0000  0.0000  0.0000
                                         0.0000  0.0000  0.0000  0.0001  0.0000
                                         0.0000  0.9993  0.0190 -0.0128  0.0000
                                         0.0000  0.0208  0.0017 -0.0037  0.0036
                                         0.0000  0.0000  0.0000  0.0000 -0.0186
                                         0.0000  0.0000 -0.0016  0.0013  0.0000
                                         0.0000
  51. (1.98117) BD ( 1) C 14- H 25
               ( 60.67%)   0.7789* C 14 s( 27.92%)p 2.58( 71.97%)d 0.00(  0.07%)
                                                  f 0.00(  0.04%)
                                         0.0000  0.5282 -0.0144  0.0032  0.0000
                                         0.0358  0.0007 -0.0006  0.8473  0.0194
                                         0.0059 -0.0001  0.0000  0.0000  0.0008
                                         0.0007  0.0000  0.0000  0.0000  0.0000
                                        -0.0229 -0.0037 -0.0112 -0.0008  0.0000
                                        -0.0005 -0.0177  0.0000  0.0000 -0.0021
                                        -0.0111
               ( 39.33%)   0.6271* H 25 s( 99.96%)p 0.00(  0.03%)d 0.00(  0.01%)
                                         0.9998 -0.0017 -0.0007  0.0007  0.0003
                                         0.0175  0.0018  0.0000  0.0000  0.0008
                                         0.0000  0.0000 -0.0070 -0.0027
  52. (1.97888) BD ( 1) C 15- H 26
               ( 61.37%)   0.7834* C 15 s( 29.18%)p 2.42( 70.71%)d 0.00(  0.07%)
                                                  f 0.00(  0.04%)
                                         0.0000  0.5402 -0.0057  0.0070 -0.0001
                                        -0.7240 -0.0051 -0.0115  0.4273  0.0063
                                         0.0027 -0.0001  0.0000  0.0000 -0.0180
                                        -0.0046  0.0000  0.0000  0.0000  0.0000
                                         0.0102  0.0025 -0.0144 -0.0005  0.0000
                                         0.0148 -0.0090  0.0000  0.0000 -0.0013
                                         0.0117
               ( 38.63%)   0.6215* H 26 s( 99.96%)p 0.00(  0.03%)d 0.00(  0.01%)
                                         0.9998 -0.0024 -0.0006 -0.0147 -0.0044
                                         0.0082  0.0027  0.0000  0.0000 -0.0066
                                         0.0000  0.0000  0.0035 -0.0026
 ---------------- non-Lewis ----------------------------------------------------
  53. (0.02575) BD*( 1) C  1- C  2
               ( 48.44%)   0.6960* C  1 s( 34.58%)p 1.89( 65.30%)d 0.00(  0.06%)
                                                  f 0.00(  0.05%)
                                         0.0000 -0.5880  0.0068  0.0014 -0.0003
                                         0.7040  0.0090  0.0046  0.3966 -0.0068
                                        -0.0001 -0.0001  0.0000  0.0000 -0.0185
                                         0.0007  0.0000  0.0000  0.0000  0.0000
                                        -0.0134  0.0034  0.0107  0.0008  0.0000
                                        -0.0144 -0.0082  0.0000  0.0000  0.0018
                                         0.0138
               ( 51.56%)  -0.7180* C  2 s( 35.51%)p 1.81( 64.35%)d 0.00(  0.10%)
                                                  f 0.00(  0.04%)
                                         0.0000 -0.5959  0.0023  0.0072  0.0000
                                        -0.6934  0.0220 -0.0007 -0.4029  0.0022
                                        -0.0014  0.0001  0.0000  0.0000 -0.0242
                                         0.0056  0.0000  0.0000  0.0000  0.0000
                                        -0.0086 -0.0001  0.0162 -0.0019  0.0000
                                         0.0117  0.0072  0.0000  0.0000 -0.0048
                                        -0.0132
  54. (0.02100) BD*( 1) C  1- N 11
               ( 57.98%)   0.7615* C  1 s( 31.16%)p 2.21( 68.76%)d 0.00(  0.06%)
                                                  f 0.00(  0.03%)
                                         0.0000  0.5577  0.0224  0.0024 -0.0004
                                         0.7082 -0.0069  0.0021 -0.4298  0.0350
                                         0.0030  0.0001  0.0000  0.0000 -0.0117
                                        -0.0143  0.0000  0.0000  0.0000  0.0000
                                         0.0077  0.0025 -0.0127 -0.0013  0.0000
                                        -0.0121  0.0067  0.0000  0.0000 -0.0002
                                        -0.0111
               ( 42.02%)  -0.6482* N 11 s( 34.23%)p 1.91( 65.34%)d 0.01(  0.41%)
                                                  f 0.00(  0.02%)
                                         0.0000  0.5851  0.0029  0.0024 -0.0001
                                        -0.6972  0.0266  0.0023  0.4080  0.0007
                                        -0.0089 -0.0001  0.0000  0.0000 -0.0509
                                        -0.0033  0.0000  0.0000  0.0000  0.0000
                                         0.0017  0.0015 -0.0379  0.0010  0.0000
                                         0.0083 -0.0057  0.0000  0.0000 -0.0055
                                         0.0106
  55. (0.51358) BD*( 2) C  1- N 11
               ( 63.83%)   0.7989* C  1 s(  0.00%)p 1.00( 99.90%)d 0.00(  0.07%)
                                                  f 0.00(  0.04%)
                                         0.0000  0.0000  0.0000  0.0000  0.0000
                                         0.0000  0.0000  0.0000 -0.0001  0.0000
                                         0.0000 -0.9995 -0.0022  0.0055  0.0000
                                         0.0000 -0.0250  0.0032  0.0064  0.0036
                                         0.0000  0.0000  0.0000  0.0000  0.0188
                                         0.0000  0.0000  0.0001 -0.0018  0.0000
                                         0.0000
               ( 36.17%)  -0.6014* N 11 s(  0.00%)p 1.00( 99.67%)d 0.00(  0.30%)
                                                  f 0.00(  0.02%)
                                         0.0000  0.0000  0.0000  0.0000  0.0000
                                         0.0000  0.0000  0.0000 -0.0001  0.0000
                                         0.0000 -0.9983  0.0103 -0.0018  0.0000
                                         0.0000 -0.0024  0.0029 -0.0550 -0.0014
                                         0.0000  0.0000  0.0000  0.0000  0.0125
                                         0.0000  0.0000 -0.0077  0.0005  0.0000
                                         0.0000
  56. (0.03922) BD*( 1) C  1- C 15
               ( 49.86%)   0.7061* C  1 s( 34.19%)p 1.92( 65.71%)d 0.00(  0.05%)
                                                  f 0.00(  0.04%)
                                         0.0000  0.5846 -0.0101  0.0005 -0.0002
                                         0.0318  0.0162 -0.0005  0.8098 -0.0076
                                         0.0027 -0.0001  0.0000  0.0000  0.0011
                                        -0.0002  0.0000  0.0000  0.0000  0.0000
                                        -0.0199 -0.0011 -0.0115  0.0006  0.0000
                                        -0.0012 -0.0162  0.0000  0.0000 -0.0012
                                        -0.0133
               ( 50.14%)  -0.7081* C 15 s( 33.62%)p 1.97( 66.19%)d 0.00(  0.14%)
                                                  f 0.00(  0.05%)
                                         0.0000  0.5798 -0.0085 -0.0026  0.0001
                                        -0.0466  0.0143  0.0023 -0.8120  0.0139
                                        -0.0040  0.0001  0.0000  0.0000 -0.0037
                                         0.0012  0.0000  0.0000  0.0000  0.0000
                                        -0.0298 -0.0020 -0.0219  0.0003  0.0000
                                        -0.0005  0.0162  0.0000  0.0000  0.0070
                                         0.0130
  57. (0.00999) BD*( 1) C  2- N  3
               ( 59.50%)   0.7714* C  2 s( 34.58%)p 1.89( 65.33%)d 0.00(  0.06%)
                                                  f 0.00(  0.03%)
                                         0.0000  0.5864  0.0441  0.0016 -0.0004
                                        -0.7169  0.0478  0.0072  0.3690 -0.0271
                                        -0.0027  0.0000  0.0000  0.0000 -0.0119
                                        -0.0127  0.0000  0.0000  0.0000  0.0000
                                         0.0058  0.0061 -0.0139 -0.0031  0.0000
                                         0.0111 -0.0052  0.0000  0.0000 -0.0043
                                         0.0120
               ( 40.50%)  -0.6364* N  3 s( 37.17%)p 1.68( 62.41%)d 0.01(  0.39%)
                                                  f 0.00(  0.03%)
                                         0.0000  0.6093  0.0201  0.0018  0.0000
                                         0.7073 -0.0149 -0.0028 -0.3514 -0.0003
                                         0.0056  0.0000  0.0000  0.0000 -0.0488
                                        -0.0017  0.0000  0.0000  0.0000  0.0000
                                         0.0127  0.0008 -0.0371  0.0025  0.0000
                                        -0.0097  0.0052  0.0000  0.0000  0.0086
                                        -0.0115
  58. (0.04157) BD*( 1) C  2- H 16
               ( 41.51%)   0.6443* C  2 s( 30.01%)p 2.33( 69.88%)d 0.00(  0.08%)
                                                  f 0.00(  0.03%)
                                         0.0000 -0.5470  0.0299 -0.0051 -0.0003
                                        -0.0152  0.0061 -0.0034  0.8355 -0.0061
                                         0.0204 -0.0001  0.0000  0.0000  0.0036
                                        -0.0014  0.0000  0.0000  0.0000  0.0000
                                         0.0216  0.0003  0.0161 -0.0047  0.0000
                                         0.0009 -0.0155  0.0000  0.0000  0.0026
                                        -0.0096
               ( 58.49%)  -0.7648* H 16 s( 99.96%)p 0.00(  0.03%)d 0.00(  0.01%)
                                        -0.9998  0.0096 -0.0007  0.0032 -0.0002
                                        -0.0152 -0.0077  0.0000  0.0000  0.0007
                                         0.0000  0.0000  0.0067  0.0025
  59. (0.00947) BD*( 1) N  3- C  4
               ( 40.58%)   0.6370* N  3 s( 37.93%)p 1.62( 61.64%)d 0.01(  0.40%)
                                                  f 0.00(  0.03%)
                                         0.0000 -0.6156 -0.0188 -0.0010  0.0000
                                         0.7029 -0.0142 -0.0025  0.3494 -0.0006
                                        -0.0052 -0.0001  0.0000  0.0000 -0.0491
                                        -0.0018  0.0000  0.0000  0.0000  0.0000
                                        -0.0133 -0.0008  0.0372 -0.0025  0.0000
                                        -0.0097 -0.0053  0.0000  0.0000  0.0083
                                         0.0117
               ( 59.42%)  -0.7709* C  4 s( 34.93%)p 1.86( 64.98%)d 0.00(  0.06%)
                                                  f 0.00(  0.03%)
                                         0.0000 -0.5895 -0.0427 -0.0012  0.0006
                                        -0.7128  0.0467  0.0070 -0.3726  0.0259
                                         0.0029  0.0001  0.0000  0.0000 -0.0121
                                        -0.0133  0.0000  0.0000  0.0000  0.0000
                                        -0.0062 -0.0061  0.0133  0.0037  0.0000
                                         0.0115  0.0052  0.0000  0.0000 -0.0041
                                        -0.0124
  60. (0.45884) BD*( 2) N  3- C  4
               ( 50.33%)   0.7094* N  3 s(  0.00%)p 1.00( 99.72%)d 0.00(  0.26%)
                                                  f 0.00(  0.03%)
                                         0.0000  0.0000  0.0000  0.0000  0.0000
                                         0.0000  0.0000  0.0000  0.0001  0.0000
                                         0.0000  0.9984 -0.0195  0.0012  0.0000
                                         0.0000 -0.0133 -0.0065 -0.0483 -0.0009
                                         0.0000  0.0000  0.0000  0.0000 -0.0126
                                         0.0000  0.0000  0.0101  0.0013  0.0000
                                         0.0000
               ( 49.67%)  -0.7048* C  4 s(  0.00%)p 1.00( 99.93%)d 0.00(  0.04%)
                                                  f 0.00(  0.03%)
                                         0.0000  0.0000  0.0000  0.0000  0.0000
                                         0.0000  0.0000  0.0000  0.0001  0.0000
                                         0.0000  0.9992  0.0273 -0.0124  0.0000
                                         0.0000  0.0142  0.0013  0.0135 -0.0009
                                         0.0000  0.0000  0.0000  0.0000 -0.0185
                                         0.0000  0.0000  0.0028 -0.0003  0.0000
                                         0.0000
  61. (0.02298) BD*( 1) C  4- C  5
               ( 51.76%)   0.7194* C  4 s( 35.75%)p 1.79( 64.13%)d 0.00(  0.08%)
                                                  f 0.00(  0.04%)
                                         0.0000  0.5979 -0.0007 -0.0071  0.0002
                                        -0.6982  0.0174 -0.0023  0.3918 -0.0019
                                         0.0008  0.0000  0.0000  0.0000 -0.0218
                                         0.0044  0.0000  0.0000  0.0000  0.0000
                                         0.0088 -0.0006 -0.0155  0.0025  0.0000
                                         0.0116 -0.0068  0.0000  0.0000 -0.0053
                                         0.0128
               ( 48.24%)  -0.6946* C  5 s( 33.70%)p 1.96( 66.19%)d 0.00(  0.06%)
                                                  f 0.00(  0.05%)
                                         0.0000  0.5805 -0.0013  0.0000  0.0001
                                         0.7127  0.0036  0.0061 -0.3924  0.0038
                                        -0.0021  0.0000  0.0000  0.0000 -0.0176
                                        -0.0006  0.0000  0.0000  0.0000  0.0000
                                         0.0118 -0.0007 -0.0113 -0.0008  0.0000
                                        -0.0154  0.0085  0.0000  0.0000  0.0015
                                        -0.0153
  62. (0.04317) BD*( 1) C  4- H 17
               ( 41.85%)   0.6469* C  4 s( 29.42%)p 2.40( 70.47%)d 0.00(  0.08%)
                                                  f 0.00(  0.03%)
                                         0.0000 -0.5414  0.0315 -0.0057 -0.0003
                                         0.0072 -0.0041  0.0031  0.8392 -0.0012
                                         0.0202 -0.0001  0.0000  0.0000 -0.0038
                                         0.0029  0.0000  0.0000  0.0000  0.0000
                                         0.0219  0.0001  0.0164 -0.0060  0.0000
                                        -0.0007 -0.0156  0.0000  0.0000 -0.0024
                                        -0.0092
               ( 58.15%)  -0.7626* H 17 s( 99.96%)p 0.00(  0.03%)d 0.00(  0.00%)
                                        -0.9998  0.0097 -0.0007  0.0001 -0.0020
                                        -0.0160 -0.0075  0.0000  0.0000 -0.0005
                                         0.0000  0.0000  0.0064  0.0025
  63. (0.02473) BD*( 1) C  5- C  6
               ( 49.19%)   0.7014* C  5 s( 33.10%)p 2.02( 66.79%)d 0.00(  0.06%)
                                                  f 0.00(  0.05%)
                                         0.0000 -0.5753 -0.0005 -0.0006  0.0001
                                         0.0188  0.0132  0.0027 -0.8169  0.0077
                                        -0.0001  0.0001  0.0000  0.0000  0.0044
                                        -0.0021  0.0000  0.0000  0.0000  0.0000
                                         0.0193  0.0021  0.0148 -0.0019  0.0000
                                        -0.0018  0.0177  0.0000  0.0000 -0.0018
                                         0.0134
               ( 50.81%)  -0.7128* C  6 s( 34.86%)p 1.86( 64.97%)d 0.00(  0.12%)
                                                  f 0.00(  0.05%)
                                         0.0000 -0.5904  0.0022  0.0029 -0.0002
                                        -0.0566  0.0160  0.0014  0.8037 -0.0164
                                         0.0027 -0.0001  0.0000  0.0000 -0.0029
                                         0.0024  0.0000  0.0000  0.0000  0.0000
                                         0.0271  0.0028  0.0212 -0.0003  0.0000
                                        -0.0002 -0.0164  0.0000  0.0000  0.0070
                                        -0.0135
  64. (0.01998) BD*( 1) C  5- C 10
               ( 49.26%)   0.7018* C  5 s( 33.08%)p 2.02( 66.81%)d 0.00(  0.07%)
                                                  f 0.00(  0.05%)
                                         0.0000 -0.5751 -0.0025 -0.0002  0.0001
                                         0.7004  0.0045  0.0018  0.4210 -0.0160
                                        -0.0019 -0.0001  0.0000  0.0000 -0.0171
                                        -0.0021  0.0000  0.0000  0.0000  0.0000
                                        -0.0110  0.0001  0.0158 -0.0028  0.0000
                                        -0.0158 -0.0083  0.0000  0.0000  0.0004
                                         0.0130
               ( 50.74%)  -0.7123* C 10 s( 35.59%)p 1.81( 64.24%)d 0.00(  0.11%)
                                                  f 0.00(  0.05%)
                                         0.0000 -0.5966  0.0007  0.0025 -0.0002
                                        -0.7055  0.0255 -0.0035 -0.3796 -0.0046
                                        -0.0033  0.0001  0.0000  0.0000 -0.0246
                                        -0.0014  0.0000  0.0000  0.0000  0.0000
                                        -0.0094 -0.0028  0.0210 -0.0007  0.0000
                                         0.0137  0.0087  0.0000  0.0000 -0.0053
                                        -0.0143
  65. (0.42781) BD*( 2) C  5- C 10
               ( 53.15%)   0.7291* C  5 s(  0.00%)p 1.00( 99.94%)d 0.00(  0.02%)
                                                  f 0.00(  0.04%)
                                         0.0000  0.0000  0.0000  0.0000  0.0000
                                         0.0000  0.0000  0.0000  0.0001  0.0000
                                         0.0000  0.9997  0.0078 -0.0063  0.0000
                                         0.0000 -0.0146 -0.0015 -0.0011 -0.0024
                                         0.0000  0.0000  0.0000  0.0000 -0.0191
                                         0.0000  0.0000 -0.0002 -0.0033  0.0000
                                         0.0000
               ( 46.85%)  -0.6845* C 10 s(  0.00%)p 1.00( 99.94%)d 0.00(  0.03%)
                                                  f 0.00(  0.04%)
                                         0.0000  0.0000  0.0000  0.0000  0.0000
                                         0.0000  0.0000  0.0000  0.0001  0.0000
                                         0.0000  0.9994  0.0194 -0.0123  0.0000
                                         0.0000  0.0035  0.0032  0.0154  0.0006
                                         0.0000  0.0000  0.0000  0.0000 -0.0188
                                         0.0000  0.0000  0.0033 -0.0007  0.0000
                                         0.0000
  66. (0.01239) BD*( 1) C  6- C  7
               ( 50.10%)   0.7078* C  6 s( 36.75%)p 1.72( 63.07%)d 0.00(  0.12%)
                                                  f 0.00(  0.05%)
                                         0.0000  0.6060  0.0154 -0.0032 -0.0001
                                        -0.6876  0.0069 -0.0023  0.3959 -0.0335
                                        -0.0045  0.0000  0.0000  0.0000 -0.0180
                                        -0.0044  0.0000  0.0000  0.0000  0.0000
                                         0.0206 -0.0008 -0.0218  0.0012  0.0000
                                         0.0151 -0.0073  0.0000  0.0000  0.0022
                                         0.0151
               ( 49.90%)  -0.7064* C  7 s( 36.57%)p 1.73( 63.26%)d 0.00(  0.12%)
                                                  f 0.00(  0.05%)
                                         0.0000  0.6047  0.0084 -0.0001  0.0000
                                         0.7082 -0.0339  0.0024 -0.3603 -0.0103
                                        -0.0046  0.0000  0.0000  0.0000 -0.0252
                                         0.0003  0.0000  0.0000  0.0000  0.0000
                                         0.0092  0.0036 -0.0216  0.0021  0.0000
                                        -0.0141  0.0088  0.0000  0.0000  0.0045
                                        -0.0143
  67. (0.31806) BD*( 2) C  6- C  7
               ( 48.85%)   0.6989* C  6 s(  0.00%)p 1.00( 99.93%)d 0.00(  0.04%)
                                                  f 0.00(  0.03%)
                                         0.0000  0.0000  0.0000  0.0000  0.0000
                                         0.0000  0.0000  0.0000 -0.0001  0.0000
                                         0.0000 -0.9994 -0.0188  0.0123  0.0000
                                         0.0000  0.0186  0.0024  0.0029 -0.0034
                                         0.0000  0.0000  0.0000  0.0000  0.0182
                                         0.0000  0.0000  0.0022  0.0019  0.0000
                                         0.0000
               ( 51.15%)  -0.7152* C  7 s(  0.00%)p 1.00( 99.93%)d 0.00(  0.03%)
                                                  f 0.00(  0.04%)
                                         0.0000  0.0000  0.0000  0.0000  0.0000
                                         0.0000  0.0000  0.0000 -0.0001  0.0000
                                         0.0000 -0.9993 -0.0229  0.0112  0.0000
                                         0.0000 -0.0092 -0.0039  0.0155  0.0001
                                         0.0000  0.0000  0.0000  0.0000  0.0186
                                         0.0000  0.0000 -0.0032 -0.0008  0.0000
                                         0.0000
  68. (0.01499) BD*( 1) C  6- H 18
               ( 38.85%)   0.6233* C  6 s( 28.25%)p 2.54( 71.64%)d 0.00(  0.07%)
                                                  f 0.00(  0.04%)
                                         0.0000 -0.5314  0.0108 -0.0059  0.0001
                                        -0.7221 -0.0082 -0.0112 -0.4413 -0.0058
                                        -0.0027  0.0001  0.0000  0.0000 -0.0178
                                        -0.0050  0.0000  0.0000  0.0000  0.0000
                                        -0.0099 -0.0025  0.0144  0.0004  0.0000
                                         0.0145  0.0092  0.0000  0.0000 -0.0001
                                        -0.0109
               ( 61.15%)  -0.7820* H 18 s( 99.96%)p 0.00(  0.03%)d 0.00(  0.01%)
                                        -0.9998  0.0025  0.0006 -0.0150 -0.0045
                                        -0.0085 -0.0028  0.0000  0.0000 -0.0068
                                         0.0000  0.0000 -0.0034  0.0024
  69. (0.01498) BD*( 1) C  7- C  8
               ( 49.95%)   0.7067* C  7 s( 35.85%)p 1.78( 63.97%)d 0.00(  0.12%)
                                                  f 0.00(  0.05%)
                                         0.0000  0.5987  0.0082 -0.0020  0.0000
                                        -0.7031  0.0313  0.0009 -0.3798 -0.0112
                                        -0.0032  0.0001  0.0000  0.0000  0.0269
                                        -0.0008  0.0000  0.0000  0.0000  0.0000
                                         0.0067  0.0041 -0.0208  0.0020  0.0000
                                         0.0146  0.0094  0.0000  0.0000 -0.0039
                                        -0.0147
               ( 50.05%)  -0.7075* C  8 s( 35.60%)p 1.80( 64.24%)d 0.00(  0.12%)
                                                  f 0.00(  0.05%)
                                         0.0000  0.5966  0.0077 -0.0012  0.0000
                                         0.6707 -0.0090  0.0048  0.4371 -0.0369
                                        -0.0040 -0.0001  0.0000  0.0000  0.0184
                                         0.0038  0.0000  0.0000  0.0000  0.0000
                                         0.0185 -0.0022 -0.0218  0.0020  0.0000
                                        -0.0147 -0.0076  0.0000  0.0000 -0.0037
                                         0.0133
  70. (0.01372) BD*( 1) C  7- H 19
               ( 39.47%)   0.6283* C  7 s( 27.45%)p 2.64( 72.43%)d 0.00(  0.07%)
                                                  f 0.00(  0.04%)
                                         0.0000 -0.5238  0.0145 -0.0022  0.0001
                                         0.0140  0.0004 -0.0006 -0.8508 -0.0177
                                        -0.0068  0.0001  0.0000  0.0000  0.0000
                                         0.0004  0.0000  0.0000  0.0000  0.0000
                                         0.0230  0.0031  0.0123  0.0002  0.0000
                                        -0.0001  0.0177  0.0000  0.0000 -0.0009
                                         0.0106
               ( 60.53%)  -0.7780* H 19 s( 99.96%)p 0.00(  0.03%)d 0.00(  0.01%)
                                        -0.9998  0.0014  0.0007  0.0003  0.0003
                                        -0.0175 -0.0019  0.0000  0.0000  0.0003
                                         0.0000  0.0000  0.0072  0.0028
  71. (0.01461) BD*( 1) C  8- C  9
               ( 50.12%)   0.7079* C  8 s( 35.70%)p 1.80( 64.13%)d 0.00(  0.12%)
                                                  f 0.00(  0.05%)
                                         0.0000 -0.5974 -0.0082  0.0013  0.0000
                                         0.0084 -0.0259 -0.0059  0.7999 -0.0277
                                         0.0014 -0.0001  0.0000  0.0000  0.0090
                                        -0.0036  0.0000  0.0000  0.0000  0.0000
                                         0.0248  0.0025  0.0218 -0.0019  0.0000
                                         0.0014 -0.0166  0.0000  0.0000 -0.0019
                                        -0.0137
               ( 49.88%)  -0.7063* C  9 s( 35.99%)p 1.77( 63.83%)d 0.00(  0.12%)
                                                  f 0.00(  0.05%)
                                         0.0000 -0.5999 -0.0079  0.0020  0.0000
                                         0.0588 -0.0265 -0.0033 -0.7960  0.0209
                                        -0.0011  0.0001  0.0000  0.0000 -0.0053
                                         0.0040  0.0000  0.0000  0.0000  0.0000
                                         0.0272  0.0012  0.0211 -0.0021  0.0000
                                         0.0001  0.0175  0.0000  0.0000 -0.0057
                                         0.0141
  72. (0.39092) BD*( 2) C  8- C  9
               ( 47.25%)   0.6874* C  8 s(  0.00%)p 1.00( 99.94%)d 0.00(  0.02%)
                                                  f 0.00(  0.04%)
                                         0.0000  0.0000  0.0000  0.0000  0.0000
                                         0.0000  0.0000  0.0000 -0.0001  0.0000
                                         0.0000 -0.9993 -0.0254  0.0115  0.0000
                                         0.0000 -0.0088 -0.0004  0.0104  0.0049
                                         0.0000  0.0000  0.0000  0.0000  0.0186
                                         0.0000  0.0000  0.0004 -0.0026  0.0000
                                         0.0000
               ( 52.75%)  -0.7263* C  9 s(  0.00%)p 1.00( 99.94%)d 0.00(  0.03%)
                                                  f 0.00(  0.03%)
                                         0.0000  0.0000  0.0000  0.0000  0.0000
                                         0.0000  0.0000  0.0000 -0.0001  0.0000
                                         0.0000 -0.9995 -0.0191  0.0106  0.0000
                                         0.0000 -0.0078  0.0005 -0.0128 -0.0052
                                         0.0000  0.0000  0.0000  0.0000  0.0181
                                         0.0000  0.0000 -0.0001  0.0034  0.0000
                                         0.0000
  73. (0.01282) BD*( 1) C  8- H 20
               ( 39.36%)   0.6274* C  8 s( 28.57%)p 2.50( 71.32%)d 0.00(  0.06%)
                                                  f 0.00(  0.04%)
                                         0.0000 -0.5343  0.0135 -0.0025  0.0001
                                         0.7400  0.0106  0.0097 -0.4066 -0.0057
                                        -0.0053  0.0000  0.0000  0.0000  0.0188
                                         0.0027  0.0000  0.0000  0.0000  0.0000
                                        -0.0121 -0.0017  0.0117  0.0012  0.0000
                                        -0.0155  0.0085  0.0000  0.0000  0.0006
                                        -0.0115
               ( 60.64%)  -0.7787* H 20 s( 99.96%)p 0.00(  0.03%)d 0.00(  0.01%)
                                        -0.9998  0.0011  0.0008  0.0154 -0.0003
                                        -0.0085 -0.0002  0.0000  0.0000  0.0061
                                         0.0000  0.0000 -0.0039  0.0031
  74. (0.01209) BD*( 1) C  9- C 10
               ( 49.99%)   0.7070* C  9 s( 36.34%)p 1.75( 63.49%)d 0.00(  0.12%)
                                                  f 0.00(  0.05%)
                                         0.0000 -0.6027 -0.0088  0.0004  0.0000
                                        -0.6869  0.0091 -0.0050  0.4023 -0.0345
                                        -0.0008  0.0000  0.0000  0.0000  0.0186
                                         0.0033  0.0000  0.0000  0.0000  0.0000
                                        -0.0195  0.0018  0.0219 -0.0022  0.0000
                                         0.0152 -0.0071  0.0000  0.0000  0.0024
                                         0.0147
               ( 50.01%)  -0.7072* C 10 s( 36.63%)p 1.73( 63.20%)d 0.00(  0.12%)
                                                  f 0.00(  0.05%)
                                         0.0000 -0.6050 -0.0139  0.0024  0.0002
                                         0.7061 -0.0322 -0.0021 -0.3636 -0.0112
                                        -0.0038  0.0000  0.0000  0.0000  0.0258
                                         0.0005  0.0000  0.0000  0.0000  0.0000
                                        -0.0072 -0.0046  0.0212 -0.0014  0.0000
                                        -0.0145  0.0087  0.0000  0.0000  0.0046
                                        -0.0145
  75. (0.01340) BD*( 1) C  9- H 21
               ( 39.44%)   0.6280* C  9 s( 27.54%)p 2.63( 72.35%)d 0.00(  0.07%)
                                                  f 0.00(  0.04%)
                                         0.0000 -0.5246  0.0145 -0.0024  0.0001
                                         0.7225  0.0149  0.0059  0.4484  0.0097
                                         0.0043 -0.0001  0.0000  0.0000 -0.0210
                                        -0.0026  0.0000  0.0000  0.0000  0.0000
                                        -0.0097 -0.0016  0.0121  0.0003  0.0000
                                        -0.0150 -0.0095  0.0000  0.0000 -0.0009
                                         0.0108
               ( 60.56%)  -0.7782* H 21 s( 99.96%)p 0.00(  0.03%)d 0.00(  0.01%)
                                        -0.9998  0.0014  0.0007  0.0148 -0.0015
                                         0.0093 -0.0010  0.0000  0.0000 -0.0064
                                         0.0000  0.0000 -0.0033  0.0028
  76. (0.01445) BD*( 1) C 10- H 22
               ( 39.59%)   0.6292* C 10 s( 27.65%)p 2.61( 72.24%)d 0.00(  0.07%)
                                                  f 0.00(  0.04%)
                                         0.0000 -0.5257  0.0114 -0.0048  0.0001
                                        -0.0128 -0.0025 -0.0025  0.8497  0.0111
                                         0.0101 -0.0001  0.0000  0.0000  0.0014
                                        -0.0004  0.0000  0.0000  0.0000  0.0000
                                         0.0203  0.0055  0.0148 -0.0003  0.0000
                                         0.0002 -0.0176  0.0000  0.0000  0.0009
                                        -0.0104
               ( 60.41%)  -0.7772* H 22 s( 99.96%)p 0.00(  0.03%)d 0.00(  0.01%)
                                        -0.9998  0.0021  0.0007 -0.0006 -0.0004
                                         0.0176 -0.0001  0.0000  0.0000  0.0003
                                         0.0000  0.0000  0.0071  0.0028
  77. (0.01209) BD*( 1) N 11- C 12
               ( 41.40%)   0.6434* N 11 s( 36.33%)p 1.74( 63.19%)d 0.01(  0.45%)
                                                  f 0.00(  0.02%)
                                         0.0000 -0.6025 -0.0189 -0.0008 -0.0001
                                        -0.7105  0.0324  0.0009 -0.3547 -0.0103
                                         0.0092  0.0001  0.0000  0.0000 -0.0529
                                        -0.0025  0.0000  0.0000  0.0000  0.0000
                                        -0.0093 -0.0017  0.0404 -0.0018  0.0000
                                         0.0090  0.0055  0.0000  0.0000 -0.0061
                                        -0.0100
               ( 58.60%)  -0.7655* C 12 s( 34.13%)p 1.93( 65.75%)d 0.00(  0.08%)
                                                  f 0.00(  0.04%)
                                         0.0000 -0.5834 -0.0311 -0.0015  0.0007
                                         0.7126 -0.0226  0.0022  0.3821 -0.0560
                                        -0.0033 -0.0001  0.0000  0.0000 -0.0118
                                        -0.0137  0.0000  0.0000  0.0000  0.0000
                                        -0.0126 -0.0032  0.0163  0.0013  0.0000
                                        -0.0130 -0.0063  0.0000  0.0000 -0.0013
                                         0.0136
  78. (0.02851) BD*( 1) C 12- C 13
               ( 50.41%)   0.7100* C 12 s( 38.33%)p 1.61( 61.53%)d 0.00(  0.10%)
                                                  f 0.00(  0.05%)
                                         0.0000  0.6191 -0.0006 -0.0023  0.0003
                                         0.0868 -0.0299  0.0004  0.7787 -0.0195
                                         0.0036 -0.0001  0.0000  0.0000  0.0007
                                         0.0028  0.0000  0.0000  0.0000  0.0000
                                        -0.0260  0.0012 -0.0168  0.0027  0.0000
                                        -0.0013 -0.0158  0.0000  0.0000 -0.0077
                                        -0.0128
               ( 49.59%)  -0.7042* C 13 s( 34.89%)p 1.86( 64.93%)d 0.00(  0.14%)
                                                  f 0.00(  0.04%)
                                         0.0000  0.5906  0.0033 -0.0029  0.0000
                                        -0.0442 -0.0237 -0.0076 -0.8036  0.0308
                                        -0.0007  0.0001  0.0000  0.0000  0.0131
                                        -0.0025  0.0000  0.0000  0.0000  0.0000
                                        -0.0264 -0.0022 -0.0229  0.0015  0.0000
                                         0.0026  0.0163  0.0000  0.0000  0.0003
                                         0.0132
  79. (0.35638) BD*( 2) C 12- C 13
               ( 57.24%)   0.7566* C 12 s(  0.00%)p 1.00( 99.94%)d 0.00(  0.03%)
                                                  f 0.00(  0.03%)
                                         0.0000  0.0000  0.0000  0.0000  0.0000
                                         0.0000  0.0000  0.0000  0.0001  0.0000
                                         0.0000  0.9992  0.0284 -0.0104  0.0000
                                         0.0000 -0.0036 -0.0011  0.0170  0.0021
                                         0.0000  0.0000  0.0000  0.0000 -0.0163
                                         0.0000  0.0000 -0.0002  0.0040  0.0000
                                         0.0000
               ( 42.76%)  -0.6539* C 13 s(  0.00%)p 1.00( 99.94%)d 0.00(  0.02%)
                                                  f 0.00(  0.04%)
                                         0.0000  0.0000  0.0000  0.0000  0.0000
                                         0.0000  0.0000  0.0000  0.0001  0.0000
                                         0.0000  0.9991  0.0337 -0.0119  0.0000
                                         0.0000 -0.0090 -0.0011 -0.0105 -0.0034
                                         0.0000  0.0000  0.0000  0.0000 -0.0194
                                         0.0000  0.0000 -0.0007 -0.0020  0.0000
                                         0.0000
  80. (0.02616) BD*( 1) C 12- H 23
               ( 40.53%)   0.6366* C 12 s( 27.53%)p 2.63( 72.35%)d 0.00(  0.09%)
                                                  f 0.00(  0.03%)
                                         0.0000 -0.5242  0.0226 -0.0012 -0.0002
                                        -0.6926 -0.0250 -0.0032  0.4931  0.0104
                                         0.0037 -0.0001  0.0000  0.0000  0.0238
                                         0.0001  0.0000  0.0000  0.0000  0.0000
                                        -0.0115  0.0029  0.0119 -0.0011  0.0000
                                         0.0131 -0.0095  0.0000  0.0000  0.0015
                                         0.0087
               ( 59.47%)  -0.7712* H 23 s( 99.96%)p 0.00(  0.03%)d 0.00(  0.01%)
                                        -0.9998  0.0029  0.0009 -0.0154  0.0000
                                         0.0090 -0.0031  0.0000  0.0000  0.0066
                                         0.0000  0.0000 -0.0025  0.0019
  81. (0.01481) BD*( 1) C 13- C 14
               ( 50.11%)   0.7079* C 13 s( 35.43%)p 1.82( 64.40%)d 0.00(  0.12%)
                                                  f 0.00(  0.04%)
                                         0.0000  0.5952  0.0090 -0.0013 -0.0001
                                        -0.6482  0.0098 -0.0056  0.4714 -0.0395
                                        -0.0050 -0.0001  0.0000  0.0000 -0.0187
                                        -0.0045  0.0000  0.0000  0.0000  0.0000
                                         0.0161 -0.0017 -0.0229  0.0017  0.0000
                                         0.0143 -0.0079  0.0000  0.0000  0.0050
                                         0.0124
               ( 49.89%)  -0.7064* C 14 s( 35.37%)p 1.82( 64.44%)d 0.00(  0.13%)
                                                  f 0.00(  0.05%)
                                         0.0000  0.5947  0.0077 -0.0026  0.0000
                                         0.6954 -0.0303 -0.0007 -0.3997 -0.0124
                                        -0.0033  0.0000  0.0000  0.0000 -0.0279
                                         0.0001  0.0000  0.0000  0.0000  0.0000
                                         0.0051  0.0042 -0.0222  0.0028  0.0000
                                        -0.0142  0.0101  0.0000  0.0000  0.0027
                                        -0.0145
  82. (0.01212) BD*( 1) C 13- H 24
               ( 39.15%)   0.6257* C 13 s( 29.53%)p 2.38( 70.36%)d 0.00(  0.06%)
                                                  f 0.00(  0.05%)
                                         0.0000 -0.5433  0.0093 -0.0040  0.0000
                                        -0.7587 -0.0072 -0.0105 -0.3575 -0.0036
                                        -0.0052  0.0001  0.0000  0.0000 -0.0168
                                        -0.0026  0.0000  0.0000  0.0000  0.0000
                                        -0.0141 -0.0020  0.0120  0.0014  0.0000
                                         0.0161  0.0072  0.0000  0.0000 -0.0031
                                        -0.0117
               ( 60.85%)  -0.7801* H 24 s( 99.96%)p 0.00(  0.03%)d 0.00(  0.01%)
                                        -0.9998  0.0011  0.0008 -0.0155  0.0018
                                        -0.0071 -0.0009  0.0000  0.0000 -0.0054
                                         0.0000  0.0000 -0.0046  0.0034
  83. (0.01195) BD*( 1) C 14- C 15
               ( 49.88%)   0.7062* C 14 s( 36.57%)p 1.73( 63.25%)d 0.00(  0.13%)
                                                  f 0.00(  0.05%)
                                         0.0000 -0.6047 -0.0096  0.0007  0.0000
                                         0.7150 -0.0336  0.0016  0.3463  0.0118
                                         0.0045 -0.0001  0.0000  0.0000 -0.0252
                                        -0.0003  0.0000  0.0000  0.0000  0.0000
                                        -0.0103 -0.0038  0.0230 -0.0024  0.0000
                                        -0.0143 -0.0087  0.0000  0.0000  0.0050
                                         0.0138
               ( 50.12%)  -0.7080* C 15 s( 37.05%)p 1.69( 62.76%)d 0.00(  0.13%)
                                                  f 0.00(  0.05%)
                                         0.0000 -0.6084 -0.0173  0.0048  0.0001
                                        -0.6863  0.0096 -0.0019 -0.3941  0.0347
                                         0.0054  0.0001  0.0000  0.0000 -0.0182
                                        -0.0047  0.0000  0.0000  0.0000  0.0000
                                        -0.0208  0.0002  0.0233 -0.0011  0.0000
                                         0.0152  0.0072  0.0000  0.0000  0.0013
                                        -0.0150
  84. (0.27174) BD*( 2) C 14- C 15
               ( 52.90%)   0.7273* C 14 s(  0.00%)p 1.00( 99.92%)d 0.00(  0.05%)
                                                  f 0.00(  0.04%)
                                         0.0000  0.0000  0.0000  0.0000  0.0000
                                         0.0000  0.0000  0.0000  0.0001  0.0000
                                         0.0000  0.9992  0.0230 -0.0116  0.0000
                                         0.0000 -0.0118 -0.0042 -0.0181  0.0010
                                         0.0000  0.0000  0.0000  0.0000 -0.0186
                                         0.0000  0.0000  0.0024 -0.0010  0.0000
                                         0.0000
               ( 47.10%)  -0.6863* C 15 s(  0.00%)p 1.00( 99.92%)d 0.00(  0.05%)
                                                  f 0.00(  0.03%)
                                         0.0000  0.0000  0.0000  0.0000  0.0000
                                         0.0000  0.0000  0.0000  0.0001  0.0000
                                         0.0000  0.9993  0.0190 -0.0128  0.0000
                                         0.0000  0.0208  0.0017 -0.0037  0.0036
                                         0.0000  0.0000  0.0000  0.0000 -0.0186
                                         0.0000  0.0000 -0.0016  0.0013  0.0000
                                         0.0000
  85. (0.01445) BD*( 1) C 14- H 25
               ( 39.33%)   0.6271* C 14 s( 27.92%)p 2.58( 71.97%)d 0.00(  0.07%)
                                                  f 0.00(  0.04%)
                                         0.0000 -0.5282  0.0144 -0.0032  0.0000
                                        -0.0358 -0.0007  0.0006 -0.8473 -0.0194
                                        -0.0059  0.0001  0.0000  0.0000 -0.0008
                                        -0.0007  0.0000  0.0000  0.0000  0.0000
                                         0.0229  0.0037  0.0112  0.0008  0.0000
                                         0.0005  0.0177  0.0000  0.0000  0.0021
                                         0.0111
               ( 60.67%)  -0.7789* H 25 s( 99.96%)p 0.00(  0.03%)d 0.00(  0.01%)
                                        -0.9998  0.0017  0.0007 -0.0007 -0.0003
                                        -0.0175 -0.0018  0.0000  0.0000 -0.0008
                                         0.0000  0.0000  0.0070  0.0027
  86. (0.01470) BD*( 1) C 15- H 26
               ( 38.63%)   0.6215* C 15 s( 29.18%)p 2.42( 70.71%)d 0.00(  0.07%)
                                                  f 0.00(  0.04%)
                                         0.0000 -0.5402  0.0057 -0.0070  0.0001
                                         0.7240  0.0051  0.0115 -0.4273 -0.0063
                                        -0.0027  0.0001  0.0000  0.0000  0.0180
                                         0.0046  0.0000  0.0000  0.0000  0.0000
                                        -0.0102 -0.0025  0.0144  0.0005  0.0000
                                        -0.0148  0.0090  0.0000  0.0000  0.0013
                                        -0.0117
               ( 61.37%)  -0.7834* H 26 s( 99.96%)p 0.00(  0.03%)d 0.00(  0.01%)
                                        -0.9998  0.0024  0.0006  0.0147  0.0044
                                        -0.0082 -0.0027  0.0000  0.0000  0.0066
                                         0.0000  0.0000 -0.0035  0.0026
  87. (0.00827) RY ( 1) C  1            s(  6.01%)p14.97( 89.93%)d 0.66(  3.97%)
                                                  f 0.02(  0.10%)
                                         0.0000 -0.0056  0.2427 -0.0338 -0.0046
                                        -0.0051 -0.8980  0.0343  0.0296  0.2860
                                         0.0947  0.0000 -0.0001  0.0000  0.1367
                                         0.0946  0.0000  0.0000  0.0000  0.0000
                                         0.0808  0.0642 -0.0179  0.0327  0.0000
                                         0.0068 -0.0062  0.0000  0.0000  0.0088
                                         0.0284
  88. (0.00512) RY ( 2) C  1            s(  0.47%)p99.99( 97.05%)d 4.31(  2.04%)
                                                  f 0.91(  0.43%)
                                         0.0000  0.0204  0.0237  0.0610 -0.0059
                                         0.0205 -0.2910  0.0004 -0.0176 -0.9341
                                        -0.1123  0.0000  0.0001  0.0000 -0.0140
                                         0.1380  0.0000  0.0000  0.0000  0.0000
                                        -0.0101  0.0305  0.0129 -0.0015  0.0000
                                         0.0523 -0.0188  0.0000  0.0000 -0.0041
                                         0.0347
  89. (0.00371) RY ( 3) C  1            s(  0.00%)p 1.00( 61.70%)d 0.61( 37.90%)
                                                  f 0.01(  0.39%)
                                         0.0000  0.0000  0.0000  0.0000  0.0000
                                         0.0000  0.0000  0.0000  0.0000  0.0001
                                         0.0000  0.0127  0.7731 -0.1383 -0.0001
                                         0.0000 -0.5900  0.1614 -0.0439  0.0541
                                         0.0000  0.0000  0.0000  0.0000 -0.0106
                                         0.0000  0.0000 -0.0224 -0.0574  0.0000
                                         0.0000
  90. (0.00144) RY ( 4) C  1            s( 51.38%)p 0.19(  9.79%)d 0.75( 38.45%)
                                                  f 0.01(  0.38%)
                                         0.0000 -0.0040  0.7163  0.0158  0.0218
                                        -0.0145  0.2242  0.1304  0.0125 -0.1094
                                         0.1353  0.0000  0.0000  0.0000  0.1703
                                        -0.3326  0.0000  0.0000  0.0000  0.0001
                                         0.2158  0.4295 -0.0723  0.0926  0.0000
                                        -0.0129  0.0519  0.0000  0.0000  0.0044
                                         0.0310
  91. (0.00058) RY ( 5) C  1            s(  0.00%)p 1.00( 30.24%)d 2.26( 68.27%)
                                                  f 0.05(  1.49%)
                                         0.0000  0.0000  0.0000  0.0000  0.0000
                                         0.0000  0.0000  0.0000  0.0000  0.0001
                                         0.0000 -0.0239  0.5265 -0.1569  0.0001
                                         0.0000  0.7624  0.0240 -0.2982  0.1093
                                         0.0001  0.0000  0.0000  0.0000 -0.0676
                                         0.0000 -0.0001 -0.0757  0.0677  0.0000
                                         0.0000
  92. (0.00043) RY ( 6) C  1            s(  0.00%)p 1.00(  4.17%)d22.59( 94.22%)
                                                  f 0.39(  1.61%)
                                         0.0000  0.0000  0.0000  0.0000  0.0000
                                         0.0000  0.0000  0.0000  0.0000  0.0000
                                         0.0000  0.0019  0.2018  0.0311  0.0000
                                         0.0000  0.1634 -0.1728  0.8753  0.3456
                                        -0.0001 -0.0001 -0.0002 -0.0001  0.0076
                                         0.0000  0.0000  0.0689  0.1061  0.0000
                                         0.0000
  93. (0.00030) RY ( 7) C  1            s( 13.09%)p 0.54(  7.11%)d 5.30( 69.37%)
                                                  f 0.80( 10.43%)
                                         0.0000  0.0004  0.2939  0.2079 -0.0361
                                        -0.0156 -0.0501 -0.1062  0.0025 -0.0600
                                         0.2312  0.0000  0.0000  0.0000 -0.2878
                                        -0.3407  0.0000  0.0001  0.0000 -0.0001
                                        -0.0261 -0.6967 -0.0640  0.0681  0.0000
                                        -0.1735 -0.0927  0.0000 -0.0001 -0.1372
                                         0.2163
  94. (0.00022) RY ( 8) C  1            s( 26.11%)p 0.21(  5.54%)d 1.64( 42.93%)
                                                  f 0.97( 25.42%)
                                         0.0000  0.0003  0.4113 -0.3014 -0.0335
                                        -0.0051  0.1428 -0.1547  0.0020  0.0031
                                         0.1049  0.0000  0.0000  0.0000 -0.2106
                                         0.5674  0.0001 -0.0001  0.0000  0.0000
                                         0.0767 -0.2271 -0.0062 -0.0742  0.0000
                                         0.0143  0.0284  0.0000  0.0001  0.4619
                                        -0.1996
  95. (0.00012) RY ( 9) C  1            s(  3.05%)p12.42( 37.92%)d16.83( 51.37%)
                                                  f 2.51(  7.66%)
                                         0.0000 -0.0085  0.1259 -0.0731  0.0963
                                         0.0098  0.0460  0.3879  0.0031  0.0008
                                        -0.4759  0.0000  0.0000  0.0001  0.5316
                                        -0.0326 -0.0001  0.0000  0.0000 -0.0001
                                         0.0985 -0.4666 -0.0464 -0.0211  0.0000
                                        -0.0271 -0.0599  0.0001  0.0000 -0.0079
                                        -0.2687
  96. (0.00007) RY (10) C  1            s( 13.32%)p 4.01( 53.40%)d 1.88( 25.00%)
                                                  f 0.62(  8.29%)
  97. (0.00005) RY (11) C  1            s( 12.05%)p 1.42( 17.11%)d 5.58( 67.29%)
                                                  f 0.30(  3.55%)
  98. (0.00003) RY (12) C  1            s( 17.93%)p 0.07(  1.29%)d 2.75( 49.23%)
                                                  f 1.76( 31.56%)
  99. (0.00002) RY (13) C  1            s(  4.42%)p 8.65( 38.21%)d12.33( 54.47%)
                                                  f 0.66(  2.91%)
 100. (0.00001) RY (14) C  1            s( 18.08%)p 0.17(  3.00%)d 1.23( 22.21%)
                                                  f 3.14( 56.72%)
 101. (0.00001) RY (15) C  1            s(  0.00%)p 1.00(  5.18%)d 2.13( 11.02%)
                                                  f16.18( 83.81%)
 102. (0.00000) RY (16) C  1            s(  0.00%)p 1.00(  0.66%)d35.81( 23.61%)
                                                  f99.99( 75.73%)
 103. (0.00000) RY (17) C  1            s(  0.00%)p 1.00(  0.02%)d99.99( 71.92%)
                                                  f99.99( 28.07%)
 104. (0.00000) RY (18) C  1            s( 49.12%)p 0.03(  1.61%)d 0.90( 44.15%)
                                                  f 0.10(  5.13%)
 105. (0.00000) RY (19) C  1            s(  0.00%)p 1.00(  7.18%)d11.86( 85.18%)
                                                  f 1.06(  7.64%)
 106. (0.00000) RY (20) C  1            s( 26.80%)p 0.02(  0.51%)d 1.91( 51.12%)
                                                  f 0.80( 21.57%)
 107. (0.00000) RY (21) C  1            s(  3.82%)p 0.89(  3.40%)d 3.24( 12.39%)
                                                  f21.02( 80.39%)
 108. (0.00000) RY (22) C  1            s(  0.00%)p 1.00( 89.98%)d 0.07(  6.68%)
                                                  f 0.04(  3.34%)
 109. (0.00000) RY (23) C  1            s( 23.30%)p 0.11(  2.64%)d 1.55( 36.19%)
                                                  f 1.62( 37.87%)
 110. (0.00000) RY (24) C  1            s( 28.01%)p 1.11( 30.98%)d 0.45( 12.70%)
                                                  f 1.01( 28.31%)
 111. (0.00000) RY (25) C  1            s(  3.11%)p 0.26(  0.80%)d 5.44( 16.95%)
                                                  f25.42( 79.14%)
 112. (0.00000) RY (26) C  1            s(  0.00%)p 1.00(  0.94%)d 1.20(  1.13%)
                                                  f99.99( 97.93%)
 113. (0.00626) RY ( 1) C  2            s( 36.89%)p 1.53( 56.44%)d 0.18(  6.63%)
                                                  f 0.00(  0.04%)
                                         0.0000 -0.0171  0.6071 -0.0056  0.0042
                                         0.0536  0.7172  0.1186 -0.0361  0.0161
                                        -0.1772  0.0000  0.0001  0.0000  0.1542
                                         0.0199  0.0000  0.0000  0.0000  0.0000
                                         0.1372  0.1497 -0.0122  0.0276  0.0000
                                         0.0156  0.0059  0.0000  0.0000  0.0082
                                        -0.0046
 114. (0.00507) RY ( 2) C  2            s(  0.00%)p 1.00( 96.73%)d 0.03(  3.13%)
                                                  f 0.00(  0.14%)
                                         0.0000  0.0000 -0.0001  0.0000  0.0000
                                         0.0000  0.0000  0.0000  0.0000  0.0002
                                         0.0000 -0.0545  0.9760 -0.1079  0.0000
                                         0.0000  0.1523 -0.0505 -0.0504 -0.0548
                                         0.0000  0.0000  0.0000  0.0000 -0.0367
                                         0.0000  0.0000  0.0057 -0.0068  0.0000
                                         0.0000
 115. (0.00358) RY ( 3) C  2            s(  4.28%)p20.67( 88.45%)d 1.64(  7.01%)
                                                  f 0.06(  0.26%)
                                         0.0000  0.0173  0.1844  0.0918 -0.0074
                                        -0.0195 -0.1664 -0.1040  0.0026  0.8833
                                         0.2557  0.0000 -0.0001  0.0000  0.0398
                                         0.0125  0.0000  0.0000  0.0000  0.0000
                                         0.0741  0.2472  0.0425 -0.0013  0.0000
                                        -0.0319 -0.0044  0.0000  0.0000  0.0347
                                        -0.0188
 116. (0.00132) RY ( 4) C  2            s( 42.44%)p 1.19( 50.71%)d 0.10(  4.18%)
                                                  f 0.06(  2.67%)
                                         0.0000 -0.0074  0.6512  0.0047  0.0164
                                        -0.0032 -0.6408 -0.0079 -0.0215 -0.2257
                                        -0.2120  0.0000  0.0001  0.0000  0.0135
                                        -0.1270  0.0000  0.0000  0.0000  0.0000
                                         0.1005  0.1153 -0.0432  0.0150  0.0000
                                         0.0377 -0.0305  0.0000  0.0000 -0.1428
                                         0.0632
 117. (0.00041) RY ( 5) C  2            s(  0.00%)p 1.00(  2.66%)d34.82( 92.68%)
                                                  f 1.75(  4.66%)
                                         0.0000  0.0000  0.0000  0.0000  0.0000
                                         0.0000  0.0000  0.0000  0.0000  0.0000
                                         0.0000  0.0101 -0.1502 -0.0629  0.0001
                                         0.0000  0.9610  0.0559  0.0131  0.0046
                                         0.0000  0.0000  0.0000  0.0000  0.0886
                                         0.0001  0.0000 -0.0546 -0.1892  0.0000
                                         0.0000
 118. (0.00019) RY ( 6) C  2            s(  2.35%)p22.06( 51.87%)d19.38( 45.58%)
                                                  f 0.09(  0.20%)
                                         0.0000  0.0058  0.1487  0.0095  0.0358
                                         0.0171  0.0875 -0.7071  0.0054 -0.0927
                                        -0.0455  0.0000  0.0000  0.0001 -0.4147
                                         0.4026  0.0000 -0.0001  0.0000  0.0000
                                        -0.3037  0.1552  0.0007 -0.0740  0.0000
                                        -0.0250  0.0025  0.0000  0.0000  0.0317
                                        -0.0193
 119. (0.00015) RY ( 7) C  2            s( 11.44%)p 3.64( 41.65%)d 3.37( 38.58%)
                                                  f 0.73(  8.33%)
                                         0.0000  0.0011  0.1623  0.2967 -0.0006
                                         0.0297  0.0954  0.1811 -0.0126 -0.1619
                                         0.5894  0.0000  0.0000 -0.0001 -0.4821
                                        -0.2985  0.0000  0.0000  0.0000  0.0001
                                        -0.1086  0.0416 -0.1385  0.1775  0.0000
                                         0.0549 -0.0007  0.0001  0.0000 -0.1578
                                        -0.2354
 120. (0.00010) RY ( 8) C  2            s(  5.98%)p 4.19( 25.06%)d 9.20( 55.05%)
                                                  f 2.32( 13.91%)
                                         0.0000 -0.0049 -0.0215  0.2435 -0.0086
                                        -0.0076 -0.0508  0.1692 -0.0074 -0.2577
                                         0.3910  0.0000  0.0000  0.0000  0.3902
                                         0.3708 -0.0001  0.0000  0.0000  0.0000
                                        -0.2017  0.4615  0.0631 -0.0558  0.0000
                                        -0.0226 -0.1219 -0.0001  0.0000  0.0435
                                         0.3490
 121. (0.00006) RY ( 9) C  2            s(  0.00%)p 1.00(  1.28%)d68.35( 87.29%)
                                                  f 8.95( 11.43%)
 122. (0.00004) RY (10) C  2            s(  2.65%)p 3.54(  9.37%)d20.34( 53.87%)
                                                  f12.88( 34.11%)
 123. (0.00002) RY (11) C  2            s(  6.60%)p 2.45( 16.16%)d 8.94( 59.04%)
                                                  f 2.75( 18.19%)
 124. (0.00002) RY (12) C  2            s(  0.00%)p 1.00(  0.84%)d99.99( 92.48%)
                                                  f 7.92(  6.68%)
 125. (0.00002) RY (13) C  2            s(  2.99%)p10.11( 30.22%)d14.45( 43.20%)
                                                  f 7.89( 23.59%)
 126. (0.00001) RY (14) C  2            s( 41.62%)p 0.10(  4.15%)d 0.89( 36.84%)
                                                  f 0.42( 17.39%)
 127. (0.00001) RY (15) C  2            s( 38.16%)p 0.29( 11.10%)d 0.91( 34.72%)
                                                  f 0.42( 16.02%)
 128. (0.00000) RY (16) C  2            s(  4.37%)p 1.87(  8.20%)d14.70( 64.27%)
                                                  f 5.30( 23.16%)
 129. (0.00000) RY (17) C  2            s(  0.00%)p 1.00( 22.15%)d 2.27( 50.21%)
                                                  f 1.25( 27.63%)
 130. (0.00000) RY (18) C  2            s( 21.31%)p 0.03(  0.65%)d 1.09( 23.29%)
                                                  f 2.57( 54.75%)
 131. (0.00000) RY (19) C  2            s(  0.00%)p 1.00( 60.92%)d 0.33( 20.36%)
                                                  f 0.31( 18.72%)
 132. (0.00000) RY (20) C  2            s( 29.18%)p 0.01(  0.30%)d 1.06( 30.88%)
                                                  f 1.36( 39.64%)
 133. (0.00000) RY (21) C  2            s( 29.07%)p 0.15(  4.28%)d 0.94( 27.43%)
                                                  f 1.35( 39.21%)
 134. (0.00000) RY (22) C  2            s(  0.00%)p 1.00(  9.62%)d 1.37( 13.17%)
                                                  f 8.03( 77.22%)
 135. (0.00000) RY (23) C  2            s( 17.57%)p 0.04(  0.66%)d 2.16( 38.02%)
                                                  f 2.49( 43.76%)
 136. (0.00000) RY (24) C  2            s(  2.98%)p 0.40(  1.19%)d10.46( 31.17%)
                                                  f21.69( 64.66%)
 137. (0.00000) RY (25) C  2            s(  0.00%)p 1.00(  5.29%)d 2.44( 12.92%)
                                                  f15.47( 81.79%)
 138. (0.00000) RY (26) C  2            s(  0.00%)p 1.00(  0.57%)d48.91( 27.74%)
                                                  f99.99( 71.69%)
 139. (0.00611) RY ( 1) N  3            s(  9.46%)p 9.17( 86.75%)d 0.39(  3.71%)
                                                  f 0.01(  0.08%)
                                         0.0000  0.0084  0.2984 -0.0736 -0.0030
                                        -0.0004  0.0121 -0.0006  0.0402 -0.9301
                                         0.0269  0.0000  0.0001  0.0000  0.0020
                                        -0.0030  0.0000  0.0000  0.0000  0.0000
                                        -0.0608  0.1554 -0.0956  0.0115  0.0000
                                         0.0006  0.0204  0.0000  0.0000 -0.0003
                                        -0.0196
 140. (0.00155) RY ( 2) N  3            s(  0.00%)p 1.00( 96.48%)d 0.03(  3.35%)
                                                  f 0.00(  0.17%)
                                         0.0000 -0.0008  0.0013  0.0009 -0.0011
                                         0.0209  0.9736 -0.1280 -0.0009  0.0104
                                         0.0050  0.0000 -0.0001  0.0000  0.0296
                                        -0.1783  0.0000  0.0000  0.0000  0.0000
                                         0.0276 -0.0100 -0.0015  0.0007  0.0000
                                         0.0043 -0.0003  0.0000  0.0000  0.0404
                                         0.0018
 141. (0.00106) RY ( 3) N  3            s(  0.00%)p 1.00(  0.45%)d99.99( 99.09%)
                                                  f 1.03(  0.46%)
                                         0.0000  0.0000  0.0000  0.0000  0.0000
                                         0.0000  0.0000  0.0000  0.0000  0.0000
                                         0.0000  0.0169  0.0648 -0.0006  0.0001
                                         0.0001  0.8857  0.4540  0.0158 -0.0057
                                         0.0000  0.0000 -0.0001  0.0000 -0.0001
                                         0.0000  0.0000 -0.0004 -0.0681  0.0000
                                         0.0000
 142. (0.00054) RY ( 4) N  3            s(  0.00%)p 1.00( 90.40%)d 0.11(  9.49%)
                                                  f 0.00(  0.11%)
                                         0.0000  0.0000  0.0001  0.0000  0.0000
                                         0.0000 -0.0001  0.0000  0.0000 -0.0001
                                         0.0000 -0.0040 -0.9503 -0.0300  0.0000
                                         0.0000  0.0554  0.0143  0.2828 -0.1081
                                         0.0000  0.0000 -0.0001  0.0000  0.0224
                                         0.0000  0.0000  0.0197 -0.0147  0.0000
                                         0.0000
 143. (0.00047) RY ( 5) N  3            s( 85.42%)p 0.13( 11.43%)d 0.03(  2.72%)
                                                  f 0.00(  0.43%)
                                         0.0000 -0.0176  0.9146 -0.1309  0.0167
                                        -0.0005 -0.0073 -0.0171  0.0341  0.3023
                                        -0.1462  0.0000  0.0001  0.0000  0.0031
                                        -0.0025  0.0000  0.0000 -0.0001  0.0000
                                         0.0044 -0.0825 -0.1427  0.0044  0.0000
                                         0.0007 -0.0202  0.0000  0.0000 -0.0019
                                        -0.0621
 144. (0.00018) RY ( 6) N  3            s(  0.89%)p 2.19(  1.94%)d99.46( 88.30%)
                                                  f 9.99(  8.87%)
                                         0.0000 -0.0181  0.0574  0.0667 -0.0284
                                        -0.0102 -0.0093  0.0493 -0.0235 -0.1272
                                         0.0080  0.0000  0.0000  0.0000 -0.1526
                                         0.0258  0.0000  0.0000  0.0002 -0.0001
                                         0.8366 -0.3728  0.1413  0.0134  0.0000
                                        -0.0064 -0.0742  0.0000  0.0000 -0.0334
                                         0.2865
 145. (0.00009) RY ( 7) N  3            s(  0.03%)p99.99( 31.63%)d99.99( 60.47%)
                                                  f99.99(  7.87%)
 146. (0.00007) RY ( 8) N  3            s(  0.59%)p11.41(  6.79%)d99.99( 82.94%)
                                                  f16.28(  9.68%)
 147. (0.00002) RY ( 9) N  3            s( 49.61%)p 0.14(  7.06%)d 0.85( 42.03%)
                                                  f 0.03(  1.30%)
 148. (0.00001) RY (10) N  3            s( 24.51%)p 0.88( 21.67%)d 1.80( 44.08%)
                                                  f 0.40(  9.75%)
 149. (0.00001) RY (11) N  3            s(  0.00%)p 1.00( 20.54%)d 3.82( 78.51%)
                                                  f 0.05(  0.96%)
 150. (0.00001) RY (12) N  3            s(  0.00%)p 1.00(  0.11%)d99.99( 79.67%)
                                                  f99.99( 20.22%)
 151. (0.00001) RY (13) N  3            s(  3.83%)p18.74( 71.74%)d 5.38( 20.59%)
                                                  f 1.00(  3.84%)
 152. (0.00001) RY (14) N  3            s(  0.46%)p86.66( 39.65%)d99.99( 51.75%)
                                                  f17.80(  8.14%)
 153. (0.00000) RY (15) N  3            s( 19.59%)p 0.06(  1.09%)d 2.96( 57.90%)
                                                  f 1.09( 21.43%)
 154. (0.00000) RY (16) N  3            s(  0.00%)p 1.00(  1.54%)d 4.47(  6.90%)
                                                  f59.30( 91.55%)
 155. (0.00000) RY (17) N  3            s(  0.00%)p 1.00(  4.99%)d 8.68( 43.29%)
                                                  f10.36( 51.71%)
 156. (0.00000) RY (18) N  3            s( 49.31%)p 0.01(  0.51%)d 0.85( 41.69%)
                                                  f 0.17(  8.49%)
 157. (0.00000) RY (19) N  3            s(  0.00%)p 1.00( 16.08%)d 1.83( 29.47%)
                                                  f 3.39( 54.46%)
 158. (0.00000) RY (20) N  3            s(  0.24%)p 0.77(  0.19%)d58.57( 14.24%)
                                                  f99.99( 85.33%)
 159. (0.00000) RY (21) N  3            s(  0.00%)p 1.00( 42.44%)d 0.79( 33.54%)
                                                  f 0.57( 24.02%)
 160. (0.00000) RY (22) N  3            s(  0.00%)p 1.00( 23.75%)d 0.83( 19.78%)
                                                  f 2.38( 56.48%)
 161. (0.00000) RY (23) N  3            s( 41.33%)p 0.00(  0.17%)d 1.14( 47.01%)
                                                  f 0.28( 11.49%)
 162. (0.00000) RY (24) N  3            s(  0.19%)p 3.63(  0.69%)d22.90(  4.33%)
                                                  f99.99( 94.80%)
 163. (0.00000) RY (25) N  3            s(  8.48%)p 0.09(  0.72%)d 2.37( 20.07%)
                                                  f 8.34( 70.73%)
 164. (0.00000) RY (26) N  3            s(  6.19%)p 3.62( 22.40%)d 2.24( 13.87%)
                                                  f 9.30( 57.54%)
 165. (0.00623) RY ( 1) C  4            s( 43.55%)p 1.07( 46.81%)d 0.22(  9.61%)
                                                  f 0.00(  0.04%)
                                         0.0000 -0.0151  0.6592  0.0248  0.0029
                                        -0.0441 -0.6396 -0.0833 -0.0384  0.1750
                                        -0.1345  0.0000  0.0000  0.0000 -0.1796
                                         0.0056  0.0000  0.0000  0.0000  0.0000
                                         0.1669  0.1885  0.0007  0.0213  0.0000
                                        -0.0144 -0.0008  0.0000  0.0000 -0.0113
                                         0.0045
 166. (0.00500) RY ( 2) C  4            s(  0.00%)p 1.00( 96.73%)d 0.03(  3.11%)
                                                  f 0.00(  0.16%)
                                         0.0000  0.0000  0.0000  0.0000  0.0000
                                         0.0000  0.0000  0.0000  0.0000  0.0001
                                         0.0000 -0.0260  0.9741 -0.1333  0.0000
                                         0.0000 -0.1544  0.0381 -0.0621 -0.0437
                                         0.0000  0.0000  0.0000  0.0000 -0.0357
                                         0.0000  0.0000  0.0043  0.0181  0.0000
                                         0.0000
 167. (0.00379) RY ( 3) C  4            s(  0.82%)p99.99( 93.97%)d 6.14(  5.01%)
                                                  f 0.26(  0.21%)
                                         0.0000 -0.0226  0.0621 -0.0609  0.0084
                                        -0.0256 -0.1728 -0.1665 -0.0101 -0.8992
                                        -0.2696  0.0000  0.0001  0.0000 -0.0028
                                        -0.0188  0.0000  0.0000  0.0000  0.0000
                                        -0.0272 -0.2180 -0.0374  0.0051  0.0000
                                        -0.0337  0.0097  0.0000  0.0000  0.0086
                                         0.0286
 168. (0.00100) RY ( 4) C  4            s( 38.26%)p 1.39( 53.01%)d 0.15(  5.56%)
                                                  f 0.08(  3.18%)
                                         0.0000 -0.0005  0.6178 -0.0142  0.0270
                                         0.0064  0.6950  0.0819 -0.0176 -0.0923
                                        -0.1775  0.0000  0.0000  0.0000  0.0460
                                         0.1342  0.0000  0.0000  0.0000  0.0000
                                         0.0766  0.1692 -0.0307  0.0054  0.0000
                                        -0.0422 -0.0277  0.0000  0.0000  0.1650
                                         0.0446
 169. (0.00053) RY ( 5) C  4            s(  0.00%)p 1.00(  3.18%)d29.18( 92.73%)
                                                  f 1.29(  4.09%)
                                         0.0000  0.0000  0.0000  0.0000  0.0000
                                         0.0000  0.0000  0.0000  0.0000  0.0000
                                         0.0000 -0.0189  0.1628  0.0701  0.0001
                                         0.0000  0.9612 -0.0400  0.0162 -0.0398
                                         0.0000  0.0000 -0.0001  0.0000 -0.0728
                                         0.0000  0.0000  0.0412 -0.1842  0.0000
                                         0.0000
 170. (0.00021) RY ( 6) C  4            s(  9.03%)p 1.57( 14.22%)d 7.23( 65.31%)
                                                  f 1.27( 11.44%)
                                         0.0000  0.0103  0.1770  0.2395  0.0386
                                        -0.0012  0.0373  0.3671  0.0044 -0.0743
                                         0.0233  0.0000  0.0000  0.0000  0.1417
                                        -0.7664  0.0000  0.0001  0.0000  0.0000
                                        -0.1279 -0.0053  0.1223 -0.1195  0.0000
                                         0.0811  0.0668  0.0000  0.0000 -0.3144
                                         0.0670
 171. (0.00010) RY ( 7) C  4            s( 23.72%)p 1.61( 38.09%)d 1.43( 33.97%)
                                                  f 0.18(  4.22%)
                                         0.0000 -0.0018  0.1514  0.4629 -0.0064
                                        -0.0292 -0.1156 -0.0718 -0.0091 -0.1802
                                         0.5735  0.0000  0.0000 -0.0001  0.4772
                                         0.1529 -0.0001  0.0000 -0.0001  0.0000
                                        -0.1551  0.1302 -0.1452  0.1630  0.0000
                                        -0.0657 -0.0193  0.0000  0.0000  0.1678
                                        -0.0966
 172. (0.00008) RY ( 8) C  4            s(  5.58%)p 1.90( 10.59%)d12.91( 72.07%)
                                                  f 2.11( 11.76%)
 173. (0.00005) RY ( 9) C  4            s(  0.00%)p 1.00(  0.33%)d99.99( 87.90%)
                                                  f35.71( 11.77%)
 174. (0.00005) RY (10) C  4            s(  4.98%)p11.73( 58.43%)d 6.70( 33.36%)
                                                  f 0.65(  3.24%)
 175. (0.00004) RY (11) C  4            s(  2.61%)p 6.91( 18.05%)d18.42( 48.15%)
                                                  f11.93( 31.18%)
 176. (0.00002) RY (12) C  4            s(  1.91%)p12.60( 24.07%)d20.91( 39.93%)
                                                  f17.85( 34.09%)
 177. (0.00001) RY (13) C  4            s( 65.28%)p 0.33( 21.40%)d 0.15(  9.71%)
                                                  f 0.06(  3.61%)
 178. (0.00001) RY (14) C  4            s(  0.00%)p 1.00(  0.88%)d99.49( 88.04%)
                                                  f12.52( 11.08%)
 179. (0.00001) RY (15) C  4            s(  1.07%)p 6.21(  6.66%)d58.59( 62.79%)
                                                  f27.51( 29.48%)
 180. (0.00000) RY (16) C  4            s(  2.82%)p 2.81(  7.92%)d21.48( 60.65%)
                                                  f10.13( 28.61%)
 181. (0.00000) RY (17) C  4            s(  0.00%)p 1.00(  1.06%)d13.32( 14.05%)
                                                  f80.46( 84.89%)
 182. (0.00000) RY (18) C  4            s(  0.00%)p 1.00( 21.64%)d 2.36( 50.98%)
                                                  f 1.26( 27.37%)
 183. (0.00000) RY (19) C  4            s(  0.00%)p 1.00( 61.32%)d 0.17( 10.57%)
                                                  f 0.46( 28.11%)
 184. (0.00000) RY (20) C  4            s(  1.86%)p 0.76(  1.40%)d 4.47(  8.31%)
                                                  f47.62( 88.43%)
 185. (0.00000) RY (21) C  4            s( 61.45%)p 0.00(  0.12%)d 0.51( 31.29%)
                                                  f 0.12(  7.14%)
 186. (0.00000) RY (22) C  4            s(  0.00%)p 1.00(  0.28%)d99.99( 32.72%)
                                                  f99.99( 67.00%)
 187. (0.00000) RY (23) C  4            s(  3.68%)p 0.50(  1.84%)d 7.91( 29.15%)
                                                  f17.74( 65.33%)
 188. (0.00000) RY (24) C  4            s(  6.48%)p 0.31(  2.00%)d 7.14( 46.32%)
                                                  f 6.97( 45.19%)
 189. (0.00000) RY (25) C  4            s(  0.00%)p 1.00( 14.65%)d 1.36( 19.86%)
                                                  f 4.47( 65.49%)
 190. (0.00000) RY (26) C  4            s( 26.80%)p 0.07(  1.84%)d 1.44( 38.60%)
                                                  f 1.22( 32.76%)
 191. (0.00719) RY ( 1) C  5            s(  1.68%)p55.93( 93.98%)d 2.51(  4.22%)
                                                  f 0.07(  0.12%)
                                         0.0000  0.0095  0.1272 -0.0211 -0.0097
                                        -0.0083  0.9498  0.0125  0.0074 -0.1933
                                         0.0107  0.0000  0.0000  0.0000 -0.0177
                                        -0.2002  0.0000  0.0000  0.0000  0.0000
                                         0.0094  0.0399 -0.0083  0.0078  0.0000
                                        -0.0257 -0.0028  0.0000  0.0000  0.0150
                                         0.0174
 192. (0.00345) RY ( 2) C  5            s(  1.58%)p58.94( 93.37%)d 3.03(  4.80%)
                                                  f 0.16(  0.25%)
                                         0.0000  0.0043  0.1241 -0.0207 -0.0027
                                        -0.0060 -0.2183  0.0007 -0.0134 -0.9391
                                        -0.0617  0.0000  0.0001  0.0000  0.0216
                                        -0.0035  0.0000  0.0000  0.0000  0.0000
                                         0.0523  0.2077 -0.0291  0.0286  0.0000
                                        -0.0100  0.0385  0.0000  0.0000  0.0300
                                         0.0014
 193. (0.00195) RY ( 3) C  5            s(  0.00%)p 1.00( 73.87%)d 0.34( 25.07%)
                                                  f 0.01(  1.06%)
                                         0.0000  0.0000  0.0000  0.0000  0.0000
                                         0.0000  0.0000  0.0000  0.0000  0.0001
                                         0.0000 -0.0016  0.8508 -0.1220  0.0001
                                         0.0000  0.4471 -0.0724 -0.1995  0.0761
                                         0.0000  0.0000  0.0000  0.0000 -0.0447
                                         0.0000  0.0000 -0.0450  0.0809  0.0000
                                         0.0000
 194. (0.00057) RY ( 4) C  5            s(  0.00%)p 1.00( 21.17%)d 3.57( 75.67%)
                                                  f 0.15(  3.16%)
                                         0.0000  0.0000  0.0000  0.0000  0.0000
                                         0.0000  0.0000  0.0000  0.0000 -0.0001
                                         0.0000  0.0172 -0.4453  0.1146  0.0001
                                         0.0000  0.8330  0.1204 -0.1497 -0.1605
                                         0.0001  0.0000  0.0000  0.0000  0.0302
                                         0.0000  0.0000  0.0272  0.1732  0.0000
                                         0.0000
 195. (0.00054) RY ( 5) C  5            s( 62.59%)p 0.11(  6.83%)d 0.45( 28.16%)
                                                  f 0.04(  2.41%)
                                         0.0000 -0.0018  0.7753  0.1570  0.0168
                                         0.0030 -0.0026 -0.1842  0.0014  0.0371
                                         0.1817  0.0000  0.0000  0.0000 -0.1570
                                         0.4010  0.0000 -0.0001  0.0000  0.0000
                                         0.1654 -0.2460 -0.0673  0.0608  0.0000
                                         0.0747 -0.0452  0.0000  0.0000 -0.0446
                                         0.1206
 196. (0.00036) RY ( 6) C  5            s(  9.89%)p 1.41( 13.90%)d 6.80( 67.26%)
                                                  f 0.91(  8.96%)
                                         0.0000 -0.0035  0.2479 -0.1928  0.0157
                                         0.0018 -0.0106  0.1024  0.0078  0.2030
                                         0.2952  0.0000  0.0000  0.0000 -0.0291
                                         0.0990  0.0000  0.0000  0.0000  0.0001
                                        -0.0676  0.8065  0.0216 -0.0799 -0.0001
                                         0.0027  0.2430  0.0000  0.0000  0.0886
                                        -0.1505
 197. (0.00031) RY ( 7) C  5            s(  0.00%)p 1.00(  0.22%)d99.99( 98.16%)
                                                  f 7.50(  1.62%)
                                         0.0000  0.0000  0.0000  0.0000  0.0000
                                         0.0000  0.0000  0.0000  0.0000  0.0000
                                         0.0000  0.0053  0.0462  0.0027  0.0000
                                         0.0001  0.2144  0.2635  0.7690  0.5242
                                        -0.0001 -0.0001 -0.0002 -0.0001 -0.0112
                                         0.0000  0.0000  0.1220  0.0352  0.0000
                                         0.0000
 198. (0.00023) RY ( 8) C  5            s( 17.77%)p 0.67( 11.95%)d 1.81( 32.21%)
                                                  f 2.14( 38.07%)
                                         0.0000 -0.0053  0.3640 -0.2111  0.0254
                                        -0.0036 -0.1404 -0.1972 -0.0004  0.0802
                                        -0.2335  0.0000  0.0000  0.0000 -0.0487
                                        -0.5563  0.0000  0.0001  0.0000  0.0000
                                        -0.0072 -0.0029  0.0344 -0.0946  0.0000
                                        -0.1872 -0.0326  0.0001 -0.0001 -0.5181
                                        -0.2760
 199. (0.00010) RY ( 9) C  5            s(  1.83%)p14.18( 25.90%)d33.52( 61.21%)
                                                  f 6.06( 11.07%)
                                         0.0000  0.0103  0.1195  0.0190 -0.0593
                                         0.0194 -0.0676  0.1534  0.0022 -0.0037
                                         0.4801  0.0000  0.0000 -0.0001  0.7284
                                        -0.2680 -0.0001  0.0000  0.0000  0.0000
                                         0.0381 -0.0713  0.0502  0.0246  0.0000
                                         0.0175 -0.0721  0.0000  0.0000 -0.1267
                                         0.2985
 200. (0.00005) RY (10) C  5            s( 13.98%)p 0.72( 10.05%)d 1.82( 25.48%)
                                                  f 3.61( 50.49%)
 201. (0.00004) RY (11) C  5            s(  7.52%)p 9.55( 71.87%)d 2.10( 15.83%)
                                                  f 0.64(  4.78%)
 202. (0.00002) RY (12) C  5            s(  6.55%)p 7.73( 50.63%)d 5.08( 33.31%)
                                                  f 1.45(  9.50%)
 203. (0.00001) RY (13) C  5            s( 38.04%)p 0.09(  3.55%)d 1.06( 40.37%)
                                                  f 0.47( 18.04%)
 204. (0.00001) RY (14) C  5            s(  0.00%)p 1.00(  1.56%)d21.75( 33.94%)
                                                  f41.34( 64.50%)
 205. (0.00001) RY (15) C  5            s(  0.99%)p 3.45(  3.40%)d85.63( 84.35%)
                                                  f11.43( 11.26%)
 206. (0.00000) RY (16) C  5            s(  0.00%)p 1.00(  0.58%)d42.65( 24.87%)
                                                  f99.99( 74.55%)
 207. (0.00000) RY (17) C  5            s(  0.00%)p 1.00(  7.65%)d 4.17( 31.90%)
                                                  f 7.91( 60.45%)
 208. (0.00000) RY (18) C  5            s( 62.54%)p 0.00(  0.17%)d 0.50( 31.52%)
                                                  f 0.09(  5.77%)
 209. (0.00000) RY (19) C  5            s(  0.00%)p 1.00( 26.20%)d 2.67( 69.91%)
                                                  f 0.15(  3.89%)
 210. (0.00000) RY (20) C  5            s( 26.98%)p 0.00(  0.13%)d 2.35( 63.40%)
                                                  f 0.35(  9.49%)
 211. (0.00000) RY (21) C  5            s(  8.59%)p 0.05(  0.42%)d 1.05(  9.03%)
                                                  f 9.54( 81.96%)
 212. (0.00000) RY (22) C  5            s(  0.00%)p 1.00( 66.05%)d 0.50( 33.33%)
                                                  f 0.01(  0.63%)
 213. (0.00000) RY (23) C  5            s(  1.70%)p 6.77( 11.54%)d16.30( 27.78%)
                                                  f34.60( 58.98%)
 214. (0.00000) RY (24) C  5            s(  1.74%)p 0.68(  1.18%)d12.59( 21.93%)
                                                  f43.13( 75.15%)
 215. (0.00000) RY (25) C  5            s( 36.15%)p 0.04(  1.34%)d 1.35( 48.96%)
                                                  f 0.37( 13.55%)
 216. (0.00000) RY (26) C  5            s(  0.00%)p 1.00(  2.76%)d 2.58(  7.14%)
                                                  f32.59( 90.10%)
 217. (0.00477) RY ( 1) C  6            s(  0.94%)p97.12( 91.46%)d 7.75(  7.30%)
                                                  f 0.32(  0.30%)
                                         0.0000  0.0038  0.0961 -0.0126 -0.0038
                                        -0.0133  0.8471  0.0475 -0.0080  0.4403
                                         0.0248  0.0000 -0.0001  0.0000 -0.0176
                                         0.2320  0.0000  0.0000  0.0000  0.0000
                                        -0.0009  0.1356 -0.0223  0.0017  0.0000
                                        -0.0321 -0.0324  0.0000  0.0000  0.0289
                                        -0.0082
 218. (0.00183) RY ( 2) C  6            s(  0.21%)p99.99( 97.66%)d 5.70(  1.19%)
                                                  f 4.53(  0.94%)
                                         0.0000  0.0072  0.0445  0.0060  0.0033
                                        -0.0231 -0.4768 -0.0114  0.0275  0.8525
                                         0.1451  0.0000  0.0000  0.0000 -0.0374
                                         0.0186  0.0000  0.0000  0.0000  0.0000
                                         0.0141  0.0977  0.0178 -0.0071  0.0000
                                        -0.0049 -0.0136  0.0000  0.0000  0.0959
                                         0.0041
 219. (0.00167) RY ( 3) C  6            s(  0.00%)p 1.00( 97.07%)d 0.02(  2.06%)
                                                  f 0.01(  0.87%)
                                         0.0000  0.0000  0.0000  0.0000  0.0000
                                         0.0000  0.0001  0.0000  0.0000  0.0000
                                         0.0000 -0.0207  0.9677 -0.1838  0.0000
                                         0.0000  0.0211  0.0589  0.1281 -0.0165
                                         0.0000  0.0000  0.0000  0.0000 -0.0540
                                         0.0000  0.0000 -0.0724 -0.0231  0.0000
                                         0.0000
 220. (0.00064) RY ( 4) C  6            s( 82.28%)p 0.01(  0.74%)d 0.20( 16.19%)
                                                  f 0.01(  0.79%)
                                         0.0000 -0.0046  0.8811  0.2152  0.0034
                                         0.0135 -0.0021 -0.0146 -0.0060 -0.0313
                                        -0.0775  0.0000  0.0000  0.0000  0.2584
                                        -0.2908  0.0000  0.0000  0.0000  0.0000
                                         0.0726  0.0480 -0.0533  0.0113  0.0000
                                         0.0460 -0.0021  0.0000  0.0000  0.0761
                                        -0.0015
 221. (0.00033) RY ( 5) C  6            s(  3.26%)p 1.01(  3.31%)d21.45( 70.04%)
                                                  f 7.16( 23.39%)
                                         0.0000 -0.0001  0.1328  0.1218 -0.0132
                                         0.0026 -0.0018 -0.0915 -0.0053  0.0857
                                         0.1317  0.0000  0.0000  0.0000 -0.0808
                                         0.2478  0.0000  0.0000  0.0000 -0.0001
                                         0.3871 -0.6905 -0.0646  0.0388  0.0000
                                        -0.0743  0.1038  0.0000 -0.0001 -0.4485
                                        -0.1284
 222. (0.00027) RY ( 6) C  6            s(  0.00%)p 1.00(  0.08%)d99.99( 94.20%)
                                                  f76.10(  5.72%)
                                         0.0000  0.0000  0.0000  0.0000  0.0000
                                         0.0000  0.0000  0.0000  0.0000  0.0000
                                         0.0000  0.0139  0.0224 -0.0074  0.0001
                                         0.0000  0.7116  0.0849 -0.3672 -0.5418
                                         0.0001  0.0001  0.0001  0.0001  0.0191
                                         0.0000  0.0000  0.1172 -0.2077  0.0000
                                         0.0000
 223. (0.00025) RY ( 7) C  6            s(  0.00%)p 1.00(  0.72%)d99.99( 96.74%)
                                                  f 3.56(  2.55%)
                                         0.0000  0.0000  0.0000  0.0000  0.0000
                                         0.0000  0.0000  0.0000  0.0000  0.0000
                                         0.0000 -0.0091  0.0544  0.0641 -0.0001
                                         0.0001 -0.4861  0.6248 -0.5366 -0.2296
                                         0.0001  0.0000  0.0001  0.0000 -0.0486
                                         0.0000  0.0000  0.0247  0.1501  0.0000
                                         0.0000
 224. (0.00017) RY ( 8) C  6            s(  9.29%)p 3.54( 32.90%)d 5.62( 52.25%)
                                                  f 0.60(  5.56%)
                                         0.0000 -0.0008  0.2947  0.0729  0.0268
                                         0.0104 -0.1539  0.5325 -0.0047 -0.1229
                                        -0.0809  0.0000  0.0000  0.0000 -0.5361
                                         0.4128  0.0001 -0.0001  0.0000  0.0000
                                        -0.0868  0.2128  0.1012 -0.0408  0.0000
                                        -0.1189 -0.1106  0.0000 -0.0001 -0.1643
                                         0.0471
 225. (0.00006) RY ( 9) C  6            s(  4.03%)p12.33( 49.66%)d 8.82( 35.52%)
                                                  f 2.68( 10.80%)
 226. (0.00004) RY (10) C  6            s(  5.31%)p 9.56( 50.73%)d 5.16( 27.39%)
                                                  f 3.12( 16.57%)
 227. (0.00001) RY (11) C  6            s( 39.55%)p 0.56( 22.34%)d 0.91( 36.06%)
                                                  f 0.05(  2.06%)
 228. (0.00002) RY (12) C  6            s(  8.10%)p 1.20(  9.73%)d 9.46( 76.62%)
                                                  f 0.69(  5.55%)
 229. (0.00001) RY (13) C  6            s(  4.31%)p 2.93( 12.63%)d18.92( 81.61%)
                                                  f 0.33(  1.44%)
 230. (0.00001) RY (14) C  6            s(  3.77%)p 1.43(  5.39%)d 6.69( 25.26%)
                                                  f17.37( 65.57%)
 231. (0.00000) RY (15) C  6            s(  8.15%)p 0.76(  6.18%)d 4.82( 39.26%)
                                                  f 5.69( 46.41%)
 232. (0.00000) RY (16) C  6            s(  0.00%)p 1.00( 67.26%)d 0.46( 31.27%)
                                                  f 0.02(  1.47%)
 233. (0.00000) RY (17) C  6            s(  0.00%)p 1.00(  0.12%)d49.12(  5.65%)
                                                  f99.99( 94.24%)
 234. (0.00000) RY (18) C  6            s(  0.00%)p 1.00(  0.55%)d10.76(  5.90%)
                                                  f99.99( 93.56%)
 235. (0.00000) RY (19) C  6            s(  0.00%)p 1.00(  0.94%)d32.96( 30.92%)
                                                  f72.63( 68.14%)
 236. (0.00000) RY (20) C  6            s(  0.00%)p 1.00(  3.72%)d17.43( 64.83%)
                                                  f 8.46( 31.45%)
 237. (0.00000) RY (21) C  6            s(  8.62%)p 0.16(  1.38%)d 2.14( 18.48%)
                                                  f 8.30( 71.52%)
 238. (0.00000) RY (22) C  6            s(  0.00%)p 1.00( 29.63%)d 2.31( 68.39%)
                                                  f 0.07(  1.97%)
 239. (0.00000) RY (23) C  6            s( 35.97%)p 0.00(  0.11%)d 0.21(  7.42%)
                                                  f 1.57( 56.50%)
 240. (0.00000) RY (24) C  6            s( 51.92%)p 0.11(  5.69%)d 0.33( 17.01%)
                                                  f 0.49( 25.37%)
 241. (0.00000) RY (25) C  6            s(  0.38%)p 2.65(  1.01%)d99.99( 50.94%)
                                                  f99.99( 47.67%)
 242. (0.00000) RY (26) C  6            s( 34.04%)p 0.28(  9.39%)d 1.09( 37.16%)
                                                  f 0.57( 19.41%)
 243. (0.00468) RY ( 1) C  7            s(  1.58%)p57.42( 90.79%)d 4.67(  7.39%)
                                                  f 0.15(  0.24%)
                                         0.0000  0.0040  0.1242 -0.0192 -0.0005
                                        -0.0019 -0.0190 -0.0111 -0.0228  0.9518
                                         0.0320  0.0000 -0.0001  0.0000 -0.0147
                                         0.0033  0.0000  0.0000  0.0000  0.0000
                                        -0.0169 -0.2707 -0.0078 -0.0051  0.0000
                                        -0.0039 -0.0479  0.0000  0.0000  0.0061
                                         0.0069
 244. (0.00148) RY ( 2) C  7            s(  2.90%)p33.06( 95.94%)d 0.25(  0.74%)
                                                  f 0.14(  0.41%)
                                         0.0000 -0.0034  0.1697 -0.0146 -0.0031
                                        -0.0420 -0.9603 -0.1846  0.0039 -0.0314
                                         0.0195  0.0000  0.0000  0.0000  0.0607
                                        -0.0221  0.0000  0.0000  0.0000  0.0000
                                        -0.0147  0.0412 -0.0325  0.0161  0.0000
                                        -0.0255  0.0092  0.0000  0.0000 -0.0582
                                        -0.0052
 245. (0.00104) RY ( 3) C  7            s(  0.00%)p 1.00( 85.90%)d 0.15( 12.86%)
                                                  f 0.01(  1.24%)
                                         0.0000  0.0000  0.0000  0.0000  0.0000
                                         0.0000  0.0000  0.0000  0.0000  0.0001
                                         0.0000 -0.0199  0.9001 -0.2202  0.0000
                                         0.0000  0.0780  0.0412  0.3241 -0.1255
                                         0.0000  0.0000 -0.0001  0.0000 -0.0345
                                         0.0000  0.0000  0.1055  0.0107  0.0000
                                         0.0000
 246. (0.00051) RY ( 4) C  7            s( 79.79%)p 0.04(  3.10%)d 0.20( 16.17%)
                                                  f 0.01(  0.94%)
                                         0.0000 -0.0071  0.8769  0.1696 -0.0065
                                         0.0086  0.1724  0.0083  0.0143 -0.0309
                                         0.0029  0.0000  0.0000  0.0000 -0.0064
                                         0.1340  0.0000  0.0000 -0.0001  0.0000
                                        -0.2276  0.2744 -0.1174  0.0535  0.0000
                                         0.0281  0.0586  0.0000  0.0000 -0.0718
                                         0.0011
 247. (0.00049) RY ( 5) C  7            s(  0.00%)p 1.00(  0.10%)d99.99( 97.80%)
                                                  f21.10(  2.10%)
                                         0.0000  0.0000  0.0000  0.0000  0.0000
                                         0.0000  0.0000  0.0000  0.0000  0.0000
                                         0.0000 -0.0144  0.0280  0.0008  0.0001
                                         0.0001  0.8378  0.4177 -0.2564  0.1896
                                         0.0001  0.0000  0.0000 -0.0001 -0.0275
                                         0.0000  0.0000 -0.0325  0.1385  0.0000
                                         0.0000
 248. (0.00033) RY ( 6) C  7            s(  1.12%)p 3.90(  4.39%)d53.85( 60.58%)
                                                  f30.15( 33.91%)
                                         0.0000 -0.0021  0.1024  0.0271  0.0052
                                         0.0011  0.0561 -0.1963  0.0006  0.0075
                                        -0.0464  0.0000  0.0000  0.0000  0.1191
                                        -0.7599  0.0000  0.0001  0.0000  0.0000
                                        -0.0742  0.0737 -0.0517  0.0231  0.0000
                                        -0.1628  0.0121  0.0000  0.0001  0.5582
                                         0.0293
 249. (0.00008) RY ( 7) C  7            s(  9.45%)p 2.73( 25.83%)d 5.63( 53.21%)
                                                  f 1.22( 11.51%)
 250. (0.00005) RY ( 8) C  7            s(  0.00%)p 1.00( 10.87%)d 8.09( 88.02%)
                                                  f 0.10(  1.10%)
 251. (0.00002) RY ( 9) C  7            s(  2.54%)p30.36( 76.97%)d 5.70( 14.46%)
                                                  f 2.38(  6.04%)
 252. (0.00001) RY (10) C  7            s(  2.10%)p 3.79(  7.94%)d35.49( 74.36%)
                                                  f 7.45( 15.61%)
 253. (0.00001) RY (11) C  7            s(  3.92%)p10.55( 41.33%)d12.82( 50.24%)
                                                  f 1.15(  4.52%)
 254. (0.00001) RY (12) C  7            s( 12.39%)p 0.13(  1.63%)d 5.53( 68.57%)
                                                  f 1.41( 17.41%)
 255. (0.00000) RY (13) C  7            s( 44.39%)p 0.30( 13.48%)d 0.91( 40.43%)
                                                  f 0.04(  1.70%)
 256. (0.00000) RY (14) C  7            s(  2.57%)p 0.90(  2.31%)d10.06( 25.85%)
                                                  f26.96( 69.26%)
 257. (0.00000) RY (15) C  7            s( 24.79%)p 0.25(  6.27%)d 1.54( 38.06%)
                                                  f 1.25( 30.87%)
 258. (0.00000) RY (16) C  7            s( 20.87%)p 0.52( 10.85%)d 2.26( 47.27%)
                                                  f 1.01( 21.01%)
 259. (0.00000) RY (17) C  7            s(  0.00%)p 1.00(  6.49%)d 8.50( 55.16%)
                                                  f 5.91( 38.35%)
 260. (0.00000) RY (18) C  7            s(  0.00%)p 1.00(  0.95%)d31.18( 29.47%)
                                                  f73.63( 69.58%)
 261. (0.00000) RY (19) C  7            s(  0.00%)p 1.00(  0.39%)d99.99( 40.79%)
                                                  f99.99( 58.82%)
 262. (0.00000) RY (20) C  7            s( 22.86%)p 0.08(  1.74%)d 0.38(  8.73%)
                                                  f 2.92( 66.68%)
 263. (0.00000) RY (21) C  7            s(  0.00%)p 1.00( 16.07%)d 1.20( 19.33%)
                                                  f 4.02( 64.60%)
 264. (0.00000) RY (22) C  7            s( 23.37%)p 0.12(  2.81%)d 0.83( 19.40%)
                                                  f 2.33( 54.42%)
 265. (0.00000) RY (23) C  7            s( 44.41%)p 0.03(  1.34%)d 0.57( 25.29%)
                                                  f 0.65( 28.96%)
 266. (0.00000) RY (24) C  7            s(  0.00%)p 1.00(  0.01%)d99.99( 43.72%)
                                                  f99.99( 56.27%)
 267. (0.00000) RY (25) C  7            s(  1.08%)p12.60( 13.61%)d45.35( 48.95%)
                                                  f33.68( 36.36%)
 268. (0.00000) RY (26) C  7            s(  0.00%)p 1.00( 79.29%)d 0.16( 12.83%)
                                                  f 0.10(  7.89%)
 269. (0.00465) RY ( 1) C  8            s(  2.17%)p41.17( 89.50%)d 3.73(  8.11%)
                                                  f 0.10(  0.22%)
                                         0.0000  0.0056  0.1469 -0.0108 -0.0039
                                         0.0158 -0.8250 -0.0817 -0.0082  0.4534
                                         0.0436  0.0000  0.0000  0.0000  0.0054
                                        -0.2412  0.0000  0.0000  0.0000  0.0000
                                        -0.0016  0.1507  0.0011 -0.0123  0.0000
                                         0.0404 -0.0222  0.0000  0.0000  0.0008
                                         0.0058
 270. (0.00286) RY ( 2) C  8            s(  0.00%)p 1.00( 90.08%)d 0.10(  8.98%)
                                                  f 0.01(  0.94%)
                                         0.0000  0.0000  0.0000  0.0000  0.0000
                                         0.0000  0.0000  0.0000  0.0000  0.0001
                                         0.0000 -0.0235  0.9260 -0.2070  0.0000
                                         0.0000 -0.2402  0.0923  0.1502 -0.0315
                                         0.0000  0.0000  0.0000  0.0000 -0.0476
                                         0.0000  0.0000 -0.0483  0.0693  0.0000
                                         0.0000
 271. (0.00132) RY ( 3) C  8            s(  0.00%)p 1.00( 99.01%)d 0.00(  0.40%)
                                                  f 0.01(  0.58%)
                                         0.0000  0.0000  0.0063  0.0004  0.0004
                                        -0.0230 -0.4529 -0.1495 -0.0418 -0.8265
                                        -0.2779  0.0000  0.0001  0.0000 -0.0313
                                         0.0121  0.0000  0.0000  0.0000  0.0000
                                        -0.0496  0.0208 -0.0034  0.0027  0.0000
                                        -0.0128 -0.0231  0.0000  0.0000  0.0714
                                         0.0036
 272. (0.00045) RY ( 4) C  8            s( 84.63%)p 0.01(  0.46%)d 0.17( 14.46%)
                                                  f 0.01(  0.45%)
                                         0.0000 -0.0098  0.9023  0.1791 -0.0038
                                        -0.0128  0.0568 -0.0177  0.0074 -0.0249
                                         0.0130  0.0000  0.0000  0.0000 -0.1850
                                         0.1860  0.0000  0.0000  0.0000  0.0000
                                         0.1315 -0.1593 -0.1642  0.0785  0.0000
                                        -0.0526  0.0355  0.0000  0.0000  0.0220
                                        -0.0041
 273. (0.00033) RY ( 5) C  8            s(  0.14%)p26.65(  3.68%)d99.99( 64.82%)
                                                  f99.99( 31.37%)
                                         0.0000 -0.0003  0.0364  0.0074 -0.0006
                                         0.0014  0.0263 -0.0861  0.0037  0.0505
                                        -0.1616  0.0000  0.0000  0.0000 -0.1145
                                         0.4299  0.0000 -0.0001  0.0000  0.0001
                                        -0.1504  0.6539 -0.0057  0.0029  0.0000
                                        -0.0828 -0.1404  0.0000 -0.0001 -0.5347
                                        -0.0354
 274. (0.00028) RY ( 6) C  8            s(  0.00%)p 1.00(  0.04%)d99.99( 97.24%)
                                                  f74.66(  2.72%)
                                         0.0000  0.0000  0.0000  0.0000  0.0000
                                         0.0000  0.0000  0.0000  0.0000  0.0000
                                         0.0000  0.0068 -0.0176  0.0032  0.0001
                                         0.0001  0.3726  0.3045  0.6412  0.5742
                                        -0.0001 -0.0001 -0.0002 -0.0001  0.0010
                                         0.0000  0.0000 -0.1376 -0.0911  0.0000
                                         0.0000
 275. (0.00009) RY ( 7) C  8            s(  8.30%)p 2.86( 23.77%)d 6.52( 54.13%)
                                                  f 1.66( 13.80%)
 276. (0.00003) RY ( 8) C  8            s(  0.03%)p99.99( 94.61%)d95.87(  2.91%)
                                                  f80.79(  2.45%)
 277. (0.00001) RY ( 9) C  8            s(  5.30%)p10.99( 58.29%)d 6.26( 33.20%)
                                                  f 0.61(  3.21%)
 278. (0.00001) RY (10) C  8            s(  0.48%)p 2.87(  1.38%)d99.99( 89.12%)
                                                  f18.78(  9.02%)
 279. (0.00001) RY (11) C  8            s(  0.00%)p 1.00( 46.13%)d 0.90( 41.58%)
                                                  f 0.27( 12.30%)
 280. (0.00000) RY (12) C  8            s( 32.27%)p 0.11(  3.68%)d 1.35( 43.58%)
                                                  f 0.63( 20.47%)
 281. (0.00000) RY (13) C  8            s( 45.33%)p 0.07(  3.08%)d 1.12( 50.90%)
                                                  f 0.02(  0.69%)
 282. (0.00000) RY (14) C  8            s( 11.26%)p 0.45(  5.04%)d 4.39( 49.44%)
                                                  f 3.04( 34.26%)
 283. (0.00000) RY (15) C  8            s( 13.83%)p 0.08(  1.05%)d 2.73( 37.77%)
                                                  f 3.42( 47.35%)
 284. (0.00000) RY (16) C  8            s( 12.08%)p 0.72(  8.68%)d 4.04( 48.73%)
                                                  f 2.53( 30.51%)
 285. (0.00000) RY (17) C  8            s(  3.21%)p 0.52(  1.67%)d13.33( 42.71%)
                                                  f16.35( 52.41%)
 286. (0.00000) RY (18) C  8            s(  0.00%)p 1.00(  0.44%)d23.81( 10.36%)
                                                  f99.99( 89.20%)
 287. (0.00000) RY (19) C  8            s(  0.00%)p 1.00(  0.65%)d20.36( 13.23%)
                                                  f99.99( 86.12%)
 288. (0.00000) RY (20) C  8            s(  0.00%)p 1.00(  1.15%)d56.93( 65.22%)
                                                  f29.36( 33.64%)
 289. (0.00000) RY (21) C  8            s(  0.00%)p 1.00(  7.70%)d 4.08( 31.46%)
                                                  f 7.90( 60.84%)
 290. (0.00000) RY (22) C  8            s(  0.00%)p 1.00(  4.64%)d18.25( 84.69%)
                                                  f 2.30( 10.66%)
 291. (0.00000) RY (23) C  8            s(  8.97%)p 0.07(  0.62%)d 2.52( 22.60%)
                                                  f 7.56( 67.81%)
 292. (0.00000) RY (24) C  8            s(  3.36%)p 1.51(  5.08%)d 8.38( 28.18%)
                                                  f18.85( 63.38%)
 293. (0.00000) RY (25) C  8            s( 68.76%)p 0.01(  0.72%)d 0.13(  8.64%)
                                                  f 0.32( 21.88%)
 294. (0.00000) RY (26) C  8            s(  0.00%)p 1.00( 49.24%)d 0.96( 47.22%)
                                                  f 0.07(  3.55%)
 295. (0.00469) RY ( 1) C  9            s(  1.51%)p60.28( 90.88%)d 4.89(  7.38%)
                                                  f 0.15(  0.23%)
                                         0.0000  0.0044  0.1213 -0.0183 -0.0007
                                         0.0190 -0.8055 -0.0321  0.0132 -0.5083
                                        -0.0091  0.0000  0.0001  0.0000  0.0054
                                         0.2478  0.0000  0.0000  0.0000  0.0000
                                         0.0200  0.1090 -0.0042 -0.0073  0.0000
                                         0.0373  0.0297  0.0000  0.0000 -0.0062
                                         0.0028
 296. (0.00147) RY ( 2) C  9            s(  2.74%)p35.12( 96.26%)d 0.23(  0.63%)
                                                  f 0.13(  0.37%)
                                         0.0000 -0.0025  0.1650 -0.0124 -0.0032
                                        -0.0261 -0.5007 -0.1161  0.0340  0.8196
                                         0.1577  0.0000 -0.0001  0.0000  0.0395
                                        -0.0375  0.0000  0.0000  0.0000  0.0000
                                        -0.0478  0.0109 -0.0270  0.0141  0.0000
                                        -0.0185  0.0196  0.0000  0.0000  0.0540
                                         0.0055
 297. (0.00115) RY ( 3) C  9            s(  0.00%)p 1.00( 86.42%)d 0.14( 12.36%)
                                                  f 0.01(  1.22%)
                                         0.0000  0.0000  0.0000  0.0000  0.0000
                                         0.0000  0.0000  0.0000  0.0000  0.0001
                                         0.0000 -0.0157  0.8999 -0.2326  0.0000
                                         0.0000 -0.1882  0.1233 -0.2698  0.0134
                                         0.0000  0.0000  0.0001  0.0000 -0.0367
                                         0.0000  0.0000 -0.0598 -0.0853  0.0000
                                         0.0000
 298. (0.00050) RY ( 4) C  9            s( 81.39%)p 0.03(  2.79%)d 0.19( 15.24%)
                                                  f 0.01(  0.58%)
                                         0.0000 -0.0080  0.8836  0.1819 -0.0056
                                        -0.0082  0.1150  0.0183 -0.0140 -0.1178
                                        -0.0137  0.0000  0.0000  0.0000  0.2059
                                        -0.1980 -0.0001  0.0000  0.0000  0.0000
                                         0.1019 -0.1963 -0.1343  0.0617  0.0000
                                        -0.0367 -0.0511  0.0000  0.0000  0.0418
                                         0.0117
 299. (0.00049) RY ( 5) C  9            s(  0.00%)p 1.00(  0.19%)d99.99( 97.36%)
                                                  f12.64(  2.45%)
                                         0.0000  0.0000  0.0000  0.0000  0.0000
                                         0.0000  0.0000  0.0000  0.0000  0.0000
                                         0.0000  0.0057 -0.0386  0.0203  0.0001
                                         0.0000  0.6481  0.0946 -0.5778 -0.4592
                                         0.0001  0.0001  0.0001  0.0001 -0.0186
                                         0.0000  0.0000 -0.1235  0.0942  0.0000
                                         0.0000
 300. (0.00033) RY ( 6) C  9            s(  0.47%)p 9.46(  4.40%)d99.99( 60.90%)
                                                  f73.54( 34.23%)
                                         0.0000 -0.0015  0.0634  0.0248  0.0049
                                         0.0003  0.0195 -0.0757 -0.0009 -0.0532
                                         0.1873  0.0000  0.0000  0.0000  0.0989
                                        -0.3812  0.0000  0.0000  0.0000  0.0001
                                        -0.0838  0.6673 -0.0360  0.0155  0.0000
                                        -0.1031  0.1372  0.0000 -0.0001 -0.5566
                                        -0.0556
 301. (0.00009) RY ( 7) C  9            s( 10.42%)p 2.12( 22.13%)d 5.30( 55.24%)
                                                  f 1.17( 12.21%)
 302. (0.00007) RY ( 8) C  9            s(  0.00%)p 1.00(  9.91%)d 9.00( 89.20%)
                                                  f 0.09(  0.89%)
 303. (0.00002) RY ( 9) C  9            s(  1.94%)p44.11( 85.52%)d 1.64(  3.19%)
                                                  f 4.83(  9.36%)
 304. (0.00001) RY (10) C  9            s(  5.03%)p 2.40( 12.09%)d14.55( 73.25%)
                                                  f 1.91(  9.63%)
 305. (0.00001) RY (11) C  9            s(  1.70%)p14.81( 25.15%)d41.03( 69.69%)
                                                  f 2.04(  3.46%)
 306. (0.00001) RY (12) C  9            s(  7.10%)p 1.32(  9.38%)d 9.27( 65.84%)
                                                  f 2.49( 17.68%)
 307. (0.00000) RY (13) C  9            s( 60.77%)p 0.01(  0.63%)d 0.33( 20.31%)
                                                  f 0.30( 18.29%)
 308. (0.00000) RY (14) C  9            s(  3.62%)p 6.44( 23.32%)d15.01( 54.40%)
                                                  f 5.15( 18.65%)
 309. (0.00000) RY (15) C  9            s( 23.04%)p 0.12(  2.72%)d 1.41( 32.42%)
                                                  f 1.82( 41.83%)
 310. (0.00000) RY (16) C  9            s(  7.56%)p 0.88(  6.69%)d 5.55( 42.00%)
                                                  f 5.78( 43.75%)
 311. (0.00000) RY (17) C  9            s(  0.00%)p 1.00(  0.96%)d 5.04(  4.86%)
                                                  f97.71( 94.18%)
 312. (0.00000) RY (18) C  9            s(  0.00%)p 1.00(  0.35%)d83.33( 29.02%)
                                                  f99.99( 70.63%)
 313. (0.00000) RY (19) C  9            s(  0.00%)p 1.00(  0.31%)d99.99( 72.81%)
                                                  f86.24( 26.88%)
 314. (0.00000) RY (20) C  9            s(  0.00%)p 1.00(  2.22%)d22.48( 49.87%)
                                                  f21.60( 47.92%)
 315. (0.00000) RY (21) C  9            s( 14.76%)p 0.14(  2.06%)d 1.40( 20.61%)
                                                  f 4.24( 62.57%)
 316. (0.00000) RY (22) C  9            s(  0.00%)p 1.00( 11.42%)d 3.67( 41.94%)
                                                  f 4.09( 46.65%)
 317. (0.00000) RY (23) C  9            s( 42.15%)p 0.03(  1.37%)d 0.13(  5.49%)
                                                  f 1.21( 50.99%)
 318. (0.00000) RY (24) C  9            s( 27.19%)p 0.12(  3.27%)d 0.33(  8.93%)
                                                  f 2.23( 60.62%)
 319. (0.00000) RY (25) C  9            s(  8.72%)p 1.34( 11.69%)d 7.36( 64.18%)
                                                  f 1.77( 15.40%)
 320. (0.00000) RY (26) C  9            s(  0.00%)p 1.00( 88.28%)d 0.03(  2.56%)
                                                  f 0.10(  9.17%)
 321. (0.00486) RY ( 1) C 10            s(  1.14%)p80.17( 91.49%)d 6.20(  7.07%)
                                                  f 0.26(  0.29%)
                                         0.0000  0.0029  0.1067 -0.0032 -0.0036
                                         0.0000  0.0771  0.0134  0.0165 -0.9512
                                        -0.0615  0.0000  0.0001  0.0000 -0.0106
                                        -0.0187  0.0000  0.0000  0.0000  0.0000
                                         0.0029 -0.2644 -0.0185 -0.0025  0.0000
                                         0.0115  0.0456  0.0000  0.0000 -0.0228
                                        -0.0140
 322. (0.00159) RY ( 2) C 10            s(  0.00%)p 1.00( 96.19%)d 0.03(  2.85%)
                                                  f 0.01(  0.96%)
                                         0.0000  0.0000  0.0000  0.0000  0.0000
                                         0.0000  0.0000  0.0000  0.0000  0.0001
                                         0.0000 -0.0200  0.9623 -0.1883  0.0000
                                         0.0000 -0.1147  0.0291 -0.1181 -0.0232
                                         0.0000  0.0000  0.0000  0.0000 -0.0547
                                         0.0000  0.0000  0.0536  0.0613  0.0000
                                         0.0000
 323. (0.00145) RY ( 3) C 10            s(  0.43%)p99.99( 96.28%)d 3.17(  1.37%)
                                                  f 4.47(  1.93%)
                                         0.0000 -0.0070  0.0201  0.0621 -0.0023
                                         0.0385  0.9554  0.2054 -0.0009  0.0759
                                         0.0249  0.0000  0.0000  0.0000 -0.0037
                                         0.1139  0.0000  0.0000  0.0000  0.0000
                                        -0.0184  0.0006 -0.0170  0.0067  0.0000
                                         0.0030  0.0070  0.0000  0.0000  0.1379
                                        -0.0137
 324. (0.00058) RY ( 4) C 10            s( 74.72%)p 0.01(  0.49%)d 0.31( 23.14%)
                                                  f 0.02(  1.65%)
                                         0.0000 -0.0052  0.8378  0.2125  0.0045
                                         0.0081  0.0013 -0.0063 -0.0088  0.0083
                                         0.0684  0.0000  0.0000  0.0000  0.0876
                                        -0.2059  0.0000  0.0000 -0.0001  0.0001
                                        -0.2843  0.3031 -0.0879  0.0298  0.0000
                                         0.0232 -0.0563  0.0000  0.0000 -0.1125
                                         0.0113
 325. (0.00032) RY ( 5) C 10            s(  0.00%)p 1.00(  0.34%)d99.99( 94.63%)
                                                  f14.98(  5.04%)
                                         0.0000  0.0000  0.0000  0.0000  0.0000
                                         0.0000  0.0000  0.0000  0.0000  0.0000
                                         0.0000 -0.0017  0.0493 -0.0305  0.0001
                                         0.0001  0.7844  0.4706 -0.2830  0.1715
                                         0.0001  0.0000  0.0000 -0.0001  0.0061
                                         0.0000  0.0000  0.1107 -0.1952  0.0000
                                         0.0000
 326. (0.00031) RY ( 6) C 10            s(  1.83%)p 4.06(  7.43%)d38.18( 69.93%)
                                                  f11.36( 20.81%)
                                         0.0000 -0.0015  0.1034  0.0873 -0.0018
                                         0.0013 -0.1086 -0.2290  0.0010 -0.0843
                                         0.0541  0.0000  0.0000  0.0000 -0.3076
                                         0.7258  0.0000 -0.0001  0.0000  0.0000
                                        -0.1622  0.2064 -0.0840  0.0444  0.0000
                                        -0.1342 -0.0322  0.0000  0.0000  0.4329
                                        -0.0408
 327. (0.00024) RY ( 7) C 10            s(  0.00%)p 1.00(  0.91%)d99.99( 95.37%)
                                                  f 4.07(  3.72%)
                                         0.0000  0.0000  0.0000  0.0000  0.0000
                                         0.0000  0.0000  0.0000  0.0000  0.0000
                                         0.0000 -0.0148  0.0905  0.0270  0.0000
                                         0.0000  0.1406  0.4335  0.7369 -0.4505
                                        -0.0001  0.0001 -0.0002  0.0001 -0.0560
                                         0.0000 -0.0001 -0.1727  0.0652  0.0000
                                         0.0000
 328. (0.00009) RY ( 8) C 10            s( 14.94%)p 2.92( 43.69%)d 2.30( 34.40%)
                                                  f 0.47(  6.97%)
 329. (0.00004) RY ( 9) C 10            s( 15.92%)p 0.92( 14.60%)d 3.87( 61.69%)
                                                  f 0.49(  7.79%)
 330. (0.00003) RY (10) C 10            s(  5.60%)p11.59( 64.87%)d 2.95( 16.50%)
                                                  f 2.33( 13.03%)
 331. (0.00001) RY (11) C 10            s( 16.95%)p 0.74( 12.61%)d 3.92( 66.42%)
                                                  f 0.24(  4.02%)
 332. (0.00001) RY (12) C 10            s(  9.76%)p 3.31( 32.27%)d 2.84( 27.77%)
                                                  f 3.09( 30.20%)
 333. (0.00001) RY (13) C 10            s(  7.54%)p 1.52( 11.47%)d 3.77( 28.38%)
                                                  f 6.98( 52.61%)
 334. (0.00001) RY (14) C 10            s(  2.90%)p 1.23(  3.57%)d12.19( 35.34%)
                                                  f20.07( 58.20%)
 335. (0.00000) RY (15) C 10            s( 23.22%)p 0.42(  9.73%)d 2.55( 59.20%)
                                                  f 0.34(  7.85%)
 336. (0.00000) RY (16) C 10            s(  0.00%)p 1.00(  7.30%)d 0.63(  4.59%)
                                                  f12.08( 88.12%)
 337. (0.00000) RY (17) C 10            s(  0.00%)p 1.00(  1.33%)d12.40( 16.46%)
                                                  f61.92( 82.21%)
 338. (0.00000) RY (18) C 10            s(  0.00%)p 1.00(  1.19%)d66.43( 78.80%)
                                                  f16.87( 20.02%)
 339. (0.00000) RY (19) C 10            s(  0.00%)p 1.00( 35.45%)d 0.18(  6.30%)
                                                  f 1.64( 58.25%)
 340. (0.00000) RY (20) C 10            s(  1.16%)p 0.84(  0.98%)d19.64( 22.79%)
                                                  f64.70( 75.07%)
 341. (0.00000) RY (21) C 10            s(  0.00%)p 1.00(  2.87%)d32.79( 94.02%)
                                                  f 1.09(  3.11%)
 342. (0.00000) RY (22) C 10            s( 82.42%)p 0.02(  1.56%)d 0.12(  9.77%)
                                                  f 0.08(  6.25%)
 343. (0.00000) RY (23) C 10            s(  5.18%)p 0.72(  3.75%)d12.86( 66.64%)
                                                  f 4.71( 24.43%)
 344. (0.00000) RY (24) C 10            s(  8.26%)p 0.26(  2.13%)d 1.01(  8.32%)
                                                  f 9.84( 81.30%)
 345. (0.00000) RY (25) C 10            s(  0.00%)p 1.00( 54.50%)d 0.13(  6.96%)
                                                  f 0.71( 38.54%)
 346. (0.00000) RY (26) C 10            s( 28.17%)p 0.12(  3.39%)d 2.16( 60.97%)
                                                  f 0.27(  7.47%)
 347. (0.00552) RY ( 1) N 11            s(  2.76%)p33.61( 92.83%)d 1.57(  4.35%)
                                                  f 0.02(  0.06%)
                                         0.0000  0.0090  0.1539 -0.0620 -0.0018
                                        -0.0071  0.0458 -0.0120 -0.0379  0.9606
                                        -0.0437  0.0000 -0.0001  0.0000 -0.0037
                                        -0.0141  0.0000  0.0000  0.0000  0.0000
                                        -0.0871  0.1817 -0.0511 -0.0043  0.0000
                                         0.0091 -0.0135  0.0000  0.0000 -0.0105
                                         0.0153
 348. (0.00167) RY ( 2) N 11            s(  0.00%)p 1.00( 96.71%)d 0.03(  3.11%)
                                                  f 0.00(  0.18%)
                                         0.0000  0.0000  0.0000  0.0000  0.0000
                                         0.0000  0.0000  0.0000  0.0000  0.0001
                                         0.0000  0.0052  0.9825  0.0412  0.0000
                                         0.0000  0.1316 -0.0056  0.0755 -0.0897
                                         0.0000  0.0000  0.0000  0.0000 -0.0218
                                         0.0000  0.0000  0.0273 -0.0243  0.0000
                                         0.0000
 349. (0.00109) RY ( 3) N 11            s(  0.02%)p99.99( 91.16%)d99.99(  8.62%)
                                                  f12.47(  0.20%)
                                         0.0000 -0.0039  0.0101 -0.0052  0.0042
                                        -0.0519 -0.9342  0.1839 -0.0065  0.0318
                                         0.0354  0.0000  0.0000  0.0000  0.1931
                                        -0.1915  0.0000  0.0000  0.0000  0.0000
                                        -0.0902 -0.0014 -0.0639  0.0035  0.0000
                                         0.0105  0.0017  0.0000  0.0000 -0.0430
                                         0.0075
 350. (0.00042) RY ( 4) N 11            s( 76.44%)p 0.06(  4.72%)d 0.25( 18.75%)
                                                  f 0.00(  0.10%)
                                         0.0000 -0.0027  0.8700 -0.0862  0.0031
                                        -0.0104  0.0517  0.0028 -0.0302 -0.2056
                                         0.0351  0.0000  0.0000  0.0000  0.0568
                                         0.0677 -0.0001 -0.0001 -0.0001  0.0000
                                        -0.3719  0.0847 -0.1845  0.0101  0.0000
                                         0.0013 -0.0290  0.0000  0.0000  0.0020
                                        -0.0106
 351. (0.00023) RY ( 5) N 11            s(  0.00%)p 1.00(  1.12%)d87.17( 97.86%)
                                                  f 0.90(  1.01%)
                                         0.0000  0.0000  0.0000  0.0000  0.0000
                                         0.0000  0.0000  0.0000  0.0000  0.0000
                                         0.0000 -0.0159 -0.1046 -0.0060  0.0001
                                         0.0001  0.6244  0.7059  0.2920 -0.0723
                                        -0.0001  0.0000 -0.0001  0.0000 -0.0021
                                         0.0000  0.0000 -0.0746  0.0676  0.0000
                                         0.0000
 352. (0.00016) RY ( 6) N 11            s(  0.00%)p 1.00(  1.02%)d94.36( 96.04%)
                                                  f 2.89(  2.94%)
                                         0.0000  0.0000  0.0006  0.0000  0.0000
                                        -0.0001  0.0000  0.0007  0.0000  0.0002
                                         0.0006  0.0496  0.0841 -0.0253  0.0005
                                         0.0009  0.0025  0.3980 -0.8810  0.1608
                                         0.0015 -0.0006  0.0004 -0.0001  0.0277
                                        -0.0003  0.0001  0.1408  0.0941  0.0002
                                         0.0003
 353. (0.00016) RY ( 7) N 11            s(  7.14%)p 2.86( 20.44%)d 9.57( 68.36%)
                                                  f 0.57(  4.07%)
                                         0.0000 -0.0124  0.2668 -0.0012  0.0077
                                        -0.0283 -0.0178  0.3385  0.0122  0.0900
                                         0.2836 -0.0001 -0.0002  0.0000  0.2471
                                         0.4128  0.0000 -0.0009  0.0020 -0.0004
                                         0.6196 -0.2506  0.0639 -0.0359 -0.0001
                                        -0.1149  0.0215 -0.0003 -0.0002  0.1079
                                         0.1239
 354. (0.00008) RY ( 8) N 11            s(  5.02%)p 8.81( 44.28%)d 7.84( 39.38%)
                                                  f 2.25( 11.32%)
 355. (0.00005) RY ( 9) N 11            s(  0.92%)p 8.21(  7.59%)d85.39( 78.92%)
                                                  f13.60( 12.56%)
 356. (0.00002) RY (10) N 11            s(  8.74%)p 4.17( 36.46%)d 3.92( 34.32%)
                                                  f 2.34( 20.48%)
 357. (0.00001) RY (11) N 11            s( 19.28%)p 0.99( 19.10%)d 3.05( 58.74%)
                                                  f 0.15(  2.89%)
 358. (0.00001) RY (12) N 11            s(  0.65%)p24.70( 16.02%)d40.03( 25.97%)
                                                  f88.43( 57.36%)
 359. (0.00000) RY (13) N 11            s(  9.78%)p 3.56( 34.80%)d 4.77( 46.64%)
                                                  f 0.90(  8.78%)
 360. (0.00000) RY (14) N 11            s( 36.53%)p 0.25(  8.98%)d 0.94( 34.44%)
                                                  f 0.55( 20.05%)
 361. (0.00000) RY (15) N 11            s( 28.89%)p 0.24(  7.00%)d 1.25( 36.14%)
                                                  f 0.97( 27.98%)
 362. (0.00000) RY (16) N 11            s(  0.00%)p 1.00(  0.40%)d 9.86(  3.94%)
                                                  f99.99( 95.66%)
 363. (0.00000) RY (17) N 11            s(  0.00%)p 1.00(  0.84%)d38.45( 32.38%)
                                                  f79.28( 66.78%)
 364. (0.00000) RY (18) N 11            s(  0.00%)p 1.00( 14.49%)d 4.16( 60.33%)
                                                  f 1.74( 25.18%)
 365. (0.00000) RY (19) N 11            s(  0.00%)p 1.00( 31.86%)d 0.08(  2.65%)
                                                  f 2.06( 65.49%)
 366. (0.00000) RY (20) N 11            s( 68.45%)p 0.00(  0.17%)d 0.07(  5.04%)
                                                  f 0.38( 26.33%)
 367. (0.00000) RY (21) N 11            s( 21.17%)p 0.04(  0.93%)d 0.40(  8.55%)
                                                  f 3.28( 69.35%)
 368. (0.00000) RY (22) N 11            s(  0.00%)p 1.00(  3.04%)d26.61( 81.00%)
                                                  f 5.24( 15.96%)
 369. (0.00000) RY (23) N 11            s(  1.43%)p 2.36(  3.37%)d 3.80(  5.42%)
                                                  f62.95( 89.78%)
 370. (0.00000) RY (24) N 11            s(  6.66%)p 0.15(  1.03%)d12.11( 80.60%)
                                                  f 1.76( 11.71%)
 371. (0.00000) RY (25) N 11            s(  0.00%)p 1.00( 50.84%)d 0.44( 22.39%)
                                                  f 0.53( 26.78%)
 372. (0.00000) RY (26) N 11            s(  6.28%)p 1.92( 12.06%)d 7.12( 44.73%)
                                                  f 5.88( 36.93%)
 373. (0.00682) RY ( 1) C 12            s(  6.53%)p13.19( 86.14%)d 1.11(  7.27%)
                                                  f 0.01(  0.06%)
                                         0.0000 -0.0165  0.2539 -0.0234  0.0055
                                         0.0286  0.8082 -0.0310  0.0541  0.4287
                                         0.1406  0.0000 -0.0001  0.0000 -0.1806
                                        -0.0527  0.0000  0.0000  0.0000  0.0000
                                         0.1204  0.1236 -0.0690  0.0523  0.0000
                                         0.0088  0.0146  0.0000  0.0000 -0.0102
                                         0.0157
 374. (0.00453) RY ( 2) C 12            s(  0.02%)p99.99( 94.00%)d99.99(  5.40%)
                                                  f24.23(  0.57%)
                                         0.0000  0.0130 -0.0055 -0.0026 -0.0054
                                        -0.0473  0.4352 -0.0374 -0.0071 -0.8619
                                        -0.0632  0.0000  0.0001  0.0000 -0.0834
                                        -0.2133  0.0000  0.0000  0.0000  0.0000
                                         0.0256  0.0122  0.0240 -0.0133  0.0000
                                        -0.0599 -0.0041  0.0000  0.0000 -0.0185
                                         0.0420
 375. (0.00188) RY ( 3) C 12            s(  0.00%)p 1.00( 51.59%)d 0.93( 48.08%)
                                                  f 0.01(  0.33%)
                                         0.0000  0.0000  0.0000  0.0000  0.0000
                                         0.0000  0.0000  0.0000  0.0000  0.0001
                                         0.0000 -0.0242  0.6961 -0.1752  0.0001
                                         0.0000  0.5938 -0.1832  0.2435  0.1879
                                         0.0000  0.0000 -0.0001  0.0000  0.0104
                                         0.0000  0.0000  0.0325  0.0466  0.0000
                                         0.0000
 376. (0.00072) RY ( 4) C 12            s(  0.00%)p 1.00( 33.11%)d 1.96( 64.79%)
                                                  f 0.06(  2.10%)
                                         0.0000  0.0000  0.0000  0.0000  0.0000
                                         0.0000  0.0000  0.0000  0.0000 -0.0001
                                         0.0000  0.0081 -0.5424  0.1917  0.0001
                                         0.0000  0.3973  0.0313  0.6964  0.0633
                                        -0.0001  0.0000 -0.0002  0.0000  0.0476
                                         0.0000  0.0000  0.1037 -0.0895  0.0000
                                         0.0000
 377. (0.00050) RY ( 5) C 12            s( 38.43%)p 0.38( 14.52%)d 1.14( 43.85%)
                                                  f 0.08(  3.20%)
                                         0.0000 -0.0068  0.6069  0.1256  0.0144
                                         0.0130 -0.2423 -0.2180 -0.0076 -0.1903
                                         0.0502  0.0000  0.0000  0.0000 -0.3345
                                         0.4040  0.0001 -0.0001  0.0000  0.0001
                                         0.1654  0.3246 -0.1255  0.1219  0.0000
                                         0.0318 -0.0446  0.0000  0.0000  0.1701
                                         0.0111
 378. (0.00034) RY ( 6) C 12            s( 36.94%)p 0.14(  5.09%)d 1.33( 49.29%)
                                                  f 0.23(  8.67%)
                                         0.0000 -0.0057  0.6059  0.0274  0.0396
                                         0.0214 -0.0551  0.1879 -0.0037 -0.0220
                                        -0.1076  0.0000  0.0000  0.0000  0.1636
                                        -0.1681  0.0000  0.0000  0.0000 -0.0001
                                         0.0454 -0.6417 -0.1396  0.0673  0.0000
                                         0.0710 -0.0101  0.0000  0.0000 -0.2801
                                        -0.0563
 379. (0.00010) RY ( 7) C 12            s(  0.00%)p 1.00( 17.96%)d 4.45( 79.97%)
                                                  f 0.12(  2.07%)
                                         0.0000  0.0000  0.0000  0.0000  0.0000
                                         0.0000  0.0000  0.0000  0.0000  0.0001
                                         0.0000 -0.0175  0.3902  0.1643 -0.0001
                                         0.0001 -0.3707  0.6894  0.4311  0.0335
                                         0.0000  0.0000 -0.0001  0.0000 -0.0410
                                         0.0000  0.0000 -0.0551 -0.1265  0.0000
                                         0.0000
 380. (0.00007) RY ( 8) C 12            s(  4.37%)p 6.50( 28.42%)d11.76( 51.43%)
                                                  f 3.61( 15.77%)
 381. (0.00004) RY ( 9) C 12            s(  6.62%)p 5.96( 39.48%)d 3.91( 25.87%)
                                                  f 4.23( 28.03%)
 382. (0.00002) RY (10) C 12            s(  9.11%)p 5.73( 52.18%)d 3.74( 34.08%)
                                                  f 0.51(  4.64%)
 383. (0.00001) RY (11) C 12            s(  5.88%)p 1.72( 10.14%)d11.67( 68.64%)
                                                  f 2.61( 15.35%)
 384. (0.00001) RY (12) C 12            s(  5.27%)p 6.63( 34.96%)d 7.74( 40.85%)
                                                  f 3.59( 18.92%)
 385. (0.00000) RY (13) C 12            s( 12.92%)p 0.30(  3.88%)d 1.45( 18.72%)
                                                  f 4.99( 64.48%)
 386. (0.00000) RY (14) C 12            s( 12.76%)p 0.93( 11.85%)d 3.48( 44.39%)
                                                  f 2.43( 31.01%)
 387. (0.00000) RY (15) C 12            s( 55.64%)p 0.04(  2.31%)d 0.52( 28.66%)
                                                  f 0.24( 13.39%)
 388. (0.00000) RY (16) C 12            s(  4.91%)p 0.37(  1.84%)d10.99( 53.94%)
                                                  f 8.01( 39.31%)
 389. (0.00000) RY (17) C 12            s(  0.00%)p 1.00(  1.23%)d23.85( 29.46%)
                                                  f56.12( 69.31%)
 390. (0.00000) RY (18) C 12            s(  0.00%)p 1.00(  0.93%)d49.54( 46.11%)
                                                  f56.91( 52.96%)
 391. (0.00000) RY (19) C 12            s(  0.00%)p 1.00(  6.51%)d 5.30( 34.49%)
                                                  f 9.06( 59.00%)
 392. (0.00000) RY (20) C 12            s(  0.00%)p 1.00(  9.99%)d 7.13( 71.21%)
                                                  f 1.88( 18.80%)
 393. (0.00000) RY (21) C 12            s(  2.90%)p 0.82(  2.38%)d 2.49(  7.23%)
                                                  f30.21( 87.49%)
 394. (0.00000) RY (22) C 12            s( 73.71%)p 0.01(  0.74%)d 0.20( 14.77%)
                                                  f 0.15( 10.78%)
 395. (0.00000) RY (23) C 12            s( 15.27%)p 0.57(  8.73%)d 2.52( 38.55%)
                                                  f 2.45( 37.44%)
 396. (0.00000) RY (24) C 12            s(  8.72%)p 0.42(  3.70%)d 7.66( 66.81%)
                                                  f 2.38( 20.77%)
 397. (0.00000) RY (25) C 12            s(  0.00%)p 1.00( 78.45%)d 0.23( 18.34%)
                                                  f 0.04(  3.21%)
 398. (0.00000) RY (26) C 12            s(  0.00%)p 1.00(  0.29%)d26.11(  7.53%)
                                                  f99.99( 92.18%)
 399. (0.00407) RY ( 1) C 13            s(  6.01%)p14.48( 86.96%)d 1.12(  6.74%)
                                                  f 0.05(  0.29%)
                                         0.0000  0.0049  0.2445  0.0147 -0.0057
                                        -0.0162  0.7400  0.0943  0.0019  0.5538
                                         0.0787  0.0000 -0.0001  0.0000  0.0191
                                         0.1968  0.0000  0.0000  0.0000  0.0000
                                         0.0337  0.1644 -0.0134 -0.0020  0.0000
                                        -0.0327 -0.0133  0.0000  0.0000  0.0396
                                        -0.0083
 400. (0.00323) RY ( 2) C 13            s(  0.00%)p 1.00( 90.19%)d 0.10(  8.67%)
                                                  f 0.01(  1.14%)
                                         0.0000  0.0000  0.0000  0.0000  0.0000
                                         0.0000  0.0000  0.0000  0.0000  0.0001
                                         0.0000 -0.0319  0.9325 -0.1769  0.0000
                                         0.0000  0.2754 -0.0673  0.0629 -0.0486
                                         0.0000  0.0000  0.0000  0.0000 -0.0513
                                         0.0000  0.0000 -0.0499 -0.0794  0.0000
                                         0.0000
 401. (0.00096) RY ( 3) C 13            s(  8.54%)p10.13( 86.49%)d 0.53(  4.49%)
                                                  f 0.06(  0.48%)
                                         0.0000 -0.0043  0.2816  0.0778 -0.0010
                                         0.0210  0.4450  0.1861 -0.0415 -0.6838
                                        -0.4031  0.0000  0.0001  0.0001  0.1431
                                        -0.1026  0.0000  0.0000  0.0000  0.0000
                                         0.0374  0.0555 -0.0850  0.0467  0.0000
                                         0.0468 -0.0322  0.0000  0.0000  0.0233
                                        -0.0321
 402. (0.00051) RY ( 4) C 13            s( 43.67%)p 0.34( 14.65%)d 0.87( 37.79%)
                                                  f 0.09(  3.89%)
                                         0.0000 -0.0078  0.6548  0.0880 -0.0102
                                         0.0019 -0.2035 -0.2419  0.0095  0.1214
                                         0.1782  0.0000  0.0000  0.0000  0.3768
                                        -0.2297 -0.0001  0.0000  0.0000  0.0000
                                         0.2905 -0.2692 -0.1465  0.0695  0.0000
                                         0.0802  0.0107  0.0000  0.0000  0.0698
                                        -0.1657
 403. (0.00027) RY ( 5) C 13            s(  2.37%)p 0.50(  1.17%)d25.59( 60.60%)
                                                  f15.14( 35.85%)
                                         0.0000 -0.0014  0.1456  0.0438  0.0236
                                         0.0052  0.0235  0.0594 -0.0061 -0.0870
                                        -0.0043  0.0000  0.0000  0.0000 -0.1866
                                         0.5086  0.0000 -0.0001  0.0000 -0.0001
                                         0.1370 -0.5409 -0.0318  0.0120 -0.0001
                                        -0.0631  0.1673 -0.0001 -0.0001 -0.5394
                                         0.1888
 404. (0.00020) RY ( 6) C 13            s(  0.00%)p 1.00(  0.14%)d99.99( 96.22%)
                                                  f25.68(  3.64%)
                                         0.0000  0.0000  0.0000  0.0000  0.0000
                                         0.0000  0.0000  0.0000  0.0000  0.0000
                                         0.0000  0.0040  0.0341 -0.0155  0.0000
                                         0.0000 -0.2506 -0.3382  0.5937  0.6576
                                        -0.0001 -0.0001 -0.0001 -0.0002 -0.0233
                                         0.0000 -0.0001 -0.1833  0.0479  0.0000
                                         0.0000
 405. (0.00017) RY ( 7) C 13            s( 33.83%)p 0.65( 21.93%)d 1.02( 34.53%)
                                                  f 0.29(  9.71%)
                                         0.0000 -0.0016  0.5740  0.0140  0.0931
                                         0.0105 -0.2319  0.3245  0.0074 -0.0695
                                         0.2350  0.0000  0.0000  0.0000 -0.3536
                                        -0.0091  0.0001  0.0000  0.0000  0.0000
                                        -0.3588  0.2552  0.1111 -0.1182  0.0000
                                        -0.0317 -0.0446  0.0000  0.0000  0.0486
                                         0.3028
 406. (0.00002) RY ( 8) C 13            s(  2.23%)p27.49( 61.22%)d12.52( 27.87%)
                                                  f 3.90(  8.69%)
 407. (0.00001) RY ( 9) C 13            s( 21.24%)p 0.70( 14.77%)d 2.03( 43.22%)
                                                  f 0.98( 20.76%)
 408. (0.00001) RY (10) C 13            s( 14.98%)p 2.87( 42.95%)d 2.31( 34.65%)
                                                  f 0.50(  7.42%)
 409. (0.00001) RY (11) C 13            s(  0.00%)p 1.00( 22.53%)d 2.71( 61.14%)
                                                  f 0.73( 16.34%)
 410. (0.00001) RY (12) C 13            s( 19.16%)p 0.84( 16.12%)d 2.53( 48.54%)
                                                  f 0.84( 16.18%)
 411. (0.00000) RY (13) C 13            s(  2.52%)p 1.11(  2.79%)d 8.29( 20.89%)
                                                  f29.29( 73.80%)
 412. (0.00000) RY (14) C 13            s( 12.14%)p 2.17( 26.32%)d 3.72( 45.19%)
                                                  f 1.35( 16.35%)
 413. (0.00000) RY (15) C 13            s( 22.72%)p 0.05(  1.16%)d 2.93( 66.66%)
                                                  f 0.42(  9.46%)
 414. (0.00000) RY (16) C 13            s( 12.82%)p 0.34(  4.34%)d 3.23( 41.46%)
                                                  f 3.23( 41.38%)
 415. (0.00000) RY (17) C 13            s(  2.60%)p 3.98( 10.36%)d26.12( 67.95%)
                                                  f 7.34( 19.08%)
 416. (0.00000) RY (18) C 13            s(  0.00%)p 1.00(  0.79%)d47.73( 37.94%)
                                                  f77.06( 61.26%)
 417. (0.00000) RY (19) C 13            s(  0.00%)p 1.00( 23.22%)d 1.72( 39.96%)
                                                  f 1.59( 36.81%)
 418. (0.00000) RY (20) C 13            s(  0.00%)p 1.00( 16.78%)d 1.07( 17.93%)
                                                  f 3.89( 65.30%)
 419. (0.00000) RY (21) C 13            s(  0.00%)p 1.00(  4.70%)d 8.97( 42.12%)
                                                  f11.33( 53.19%)
 420. (0.00000) RY (22) C 13            s( 37.46%)p 0.06(  2.09%)d 0.66( 24.82%)
                                                  f 0.95( 35.62%)
 421. (0.00000) RY (23) C 13            s( 27.72%)p 0.09(  2.52%)d 0.47( 12.99%)
                                                  f 2.05( 56.77%)
 422. (0.00000) RY (24) C 13            s(  0.00%)p 1.00( 39.22%)d 1.35( 52.85%)
                                                  f 0.20(  7.92%)
 423. (0.00000) RY (25) C 13            s( 30.16%)p 0.15(  4.45%)d 0.71( 21.27%)
                                                  f 1.46( 44.12%)
 424. (0.00000) RY (26) C 13            s(  0.00%)p 1.00(  2.49%)d17.32( 43.16%)
                                                  f21.82( 54.35%)
 425. (0.00474) RY ( 1) C 14            s(  1.10%)p82.46( 90.58%)d 7.32(  8.04%)
                                                  f 0.25(  0.28%)
                                         0.0000  0.0054  0.0768 -0.0710 -0.0030
                                         0.0017  0.0348 -0.0063 -0.0261  0.9506
                                         0.0182  0.0000 -0.0001  0.0000  0.0118
                                         0.0147  0.0000  0.0000  0.0000  0.0000
                                        -0.0097 -0.2816  0.0181 -0.0188  0.0000
                                         0.0033 -0.0512  0.0000  0.0000 -0.0108
                                         0.0057
 426. (0.00166) RY ( 2) C 14            s(  6.75%)p13.54( 91.39%)d 0.18(  1.19%)
                                                  f 0.10(  0.67%)
                                         0.0000 -0.0052  0.2596 -0.0080 -0.0011
                                         0.0411  0.9455  0.1288  0.0047 -0.0331
                                         0.0231  0.0000  0.0000  0.0000 -0.0484
                                        -0.0106  0.0000  0.0000  0.0000  0.0000
                                        -0.0472  0.0646 -0.0492  0.0249  0.0000
                                         0.0176  0.0164  0.0000  0.0000  0.0775
                                        -0.0083
 427. (0.00090) RY ( 3) C 14            s(  0.00%)p 1.00( 68.06%)d 0.45( 30.50%)
                                                  f 0.02(  1.44%)
                                         0.0000  0.0000  0.0001  0.0000  0.0000
                                         0.0000 -0.0001  0.0000  0.0000 -0.0001
                                         0.0000  0.0270 -0.7891  0.2392  0.0001
                                         0.0000  0.4985  0.2103 -0.1056 -0.0334
                                         0.0000  0.0000  0.0000  0.0000  0.0551
                                         0.0000  0.0000 -0.0590  0.0886  0.0000
                                         0.0000
 428. (0.00082) RY ( 4) C 14            s( 75.15%)p 0.11(  8.09%)d 0.22( 16.18%)
                                                  f 0.01(  0.58%)
                                         0.0000 -0.0076  0.8491  0.1746 -0.0023
                                        -0.0103 -0.2769  0.0551  0.0124  0.0314
                                        -0.0027  0.0000  0.0001  0.0000  0.0397
                                        -0.0569 -0.0001  0.0000 -0.0001  0.0001
                                        -0.2559  0.2370 -0.1653  0.0895  0.0000
                                        -0.0002  0.0634  0.0000  0.0000 -0.0015
                                         0.0416
 429. (0.00037) RY ( 5) C 14            s(  0.00%)p 1.00( 21.18%)d 3.62( 76.73%)
                                                  f 0.10(  2.09%)
                                         0.0000  0.0000  0.0000  0.0000  0.0000
                                         0.0000  0.0000  0.0000  0.0000  0.0001
                                         0.0000  0.0055  0.4583 -0.0416  0.0001
                                         0.0001  0.6515  0.3643  0.3908 -0.2393
                                         0.0000  0.0000 -0.0001  0.0001  0.0095
                                         0.0000  0.0000  0.1037  0.1005  0.0000
                                         0.0000
 430. (0.00032) RY ( 6) C 14            s(  0.01%)p 1.00(  8.17%)d 7.38( 60.33%)
                                                  f 3.85( 31.49%)
                                         0.0000 -0.0020  0.0002  0.0065  0.0047
                                         0.0005 -0.0041  0.2852 -0.0006  0.0020
                                        -0.0179  0.0000  0.0000  0.0000 -0.1460
                                         0.7590  0.0000 -0.0001  0.0000  0.0000
                                        -0.0236  0.0514 -0.0487  0.0173  0.0000
                                         0.1719 -0.0029  0.0000 -0.0001 -0.5312
                                         0.0569
 431. (0.00007) RY ( 7) C 14            s(  0.00%)p 1.00(  7.36%)d12.41( 91.31%)
                                                  f 0.18(  1.33%)
 432. (0.00008) RY ( 8) C 14            s( 12.73%)p 0.96( 12.28%)d 4.58( 58.35%)
                                                  f 1.31( 16.65%)
 433. (0.00002) RY ( 9) C 14            s( 29.61%)p 0.07(  2.05%)d 2.08( 61.49%)
                                                  f 0.23(  6.84%)
 434. (0.00002) RY (10) C 14            s( 14.36%)p 2.37( 33.97%)d 2.91( 41.72%)
                                                  f 0.69(  9.95%)
 435. (0.00001) RY (11) C 14            s(  4.76%)p 3.52( 16.75%)d 8.36( 39.78%)
                                                  f 8.13( 38.71%)
 436. (0.00001) RY (12) C 14            s( 12.53%)p 4.33( 54.24%)d 2.42( 30.34%)
                                                  f 0.23(  2.90%)
 437. (0.00000) RY (13) C 14            s(  6.15%)p 2.26( 13.88%)d 8.97( 55.11%)
                                                  f 4.04( 24.86%)
 438. (0.00000) RY (14) C 14            s( 23.84%)p 1.02( 24.26%)d 1.99( 47.47%)
                                                  f 0.19(  4.43%)
 439. (0.00000) RY (15) C 14            s( 27.09%)p 0.46( 12.39%)d 1.83( 49.53%)
                                                  f 0.41( 10.98%)
 440. (0.00000) RY (16) C 14            s(  1.75%)p 9.99( 17.51%)d26.64( 46.67%)
                                                  f19.45( 34.07%)
 441. (0.00000) RY (17) C 14            s(  0.00%)p 1.00(  3.70%)d 8.29( 30.65%)
                                                  f17.77( 65.66%)
 442. (0.00000) RY (18) C 14            s(  0.00%)p 1.00(  0.32%)d99.99( 51.93%)
                                                  f99.99( 47.75%)
 443. (0.00000) RY (19) C 14            s(  0.00%)p 1.00(  2.68%)d21.88( 58.64%)
                                                  f14.43( 38.68%)
 444. (0.00000) RY (20) C 14            s(  0.00%)p 0.00(  0.01%)d 1.00( 34.38%)
                                                  f 1.91( 65.61%)
 445. (0.00000) RY (21) C 14            s(  8.20%)p 0.38(  3.11%)d 1.53( 12.52%)
                                                  f 9.29( 76.17%)
 446. (0.00000) RY (22) C 14            s(  0.00%)p 1.00( 13.49%)d 1.32( 17.84%)
                                                  f 5.09( 68.67%)
 447. (0.00000) RY (23) C 14            s(  2.98%)p 2.40(  7.14%)d 2.67(  7.96%)
                                                  f27.53( 81.93%)
 448. (0.00000) RY (24) C 14            s( 15.60%)p 0.07(  1.03%)d 1.63( 25.48%)
                                                  f 3.71( 57.89%)
 449. (0.00000) RY (25) C 14            s( 57.53%)p 0.06(  3.50%)d 0.65( 37.50%)
                                                  f 0.03(  1.46%)
 450. (0.00000) RY (26) C 14            s(  0.00%)p 1.00( 83.29%)d 0.10(  7.98%)
                                                  f 0.10(  8.74%)
 451. (0.00425) RY ( 1) C 15            s(  4.63%)p19.07( 88.40%)d 1.34(  6.20%)
                                                  f 0.17(  0.77%)
                                         0.0000  0.0043  0.2151  0.0052 -0.0033
                                         0.0143 -0.7296 -0.0407 -0.0047  0.5887
                                         0.0565  0.0000 -0.0001  0.0000 -0.0325
                                        -0.1955  0.0000  0.0000  0.0000  0.0000
                                         0.0200  0.1447 -0.0362  0.0089  0.0000
                                         0.0235 -0.0260  0.0000  0.0000 -0.0801
                                        -0.0055
 452. (0.00176) RY ( 2) C 15            s(  0.87%)p99.99( 97.67%)d 0.61(  0.54%)
                                                  f 1.05(  0.92%)
                                         0.0000  0.0090  0.0922  0.0113 -0.0063
                                         0.0234  0.6391  0.0701  0.0257  0.7365
                                         0.1405  0.0000 -0.0004  0.0000 -0.0472
                                         0.0362  0.0000  0.0000  0.0000  0.0000
                                         0.0036  0.0400  0.0141 -0.0027  0.0000
                                        -0.0095 -0.0190  0.0000  0.0000 -0.0913
                                        -0.0210
 453. (0.00162) RY ( 3) C 15            s(  0.00%)p 1.00( 96.33%)d 0.03(  2.85%)
                                                  f 0.01(  0.82%)
                                         0.0000  0.0000  0.0000  0.0000  0.0000
                                         0.0000  0.0002  0.0000  0.0000  0.0004
                                         0.0000 -0.0210  0.9604 -0.2012  0.0000
                                         0.0000 -0.0074 -0.0821  0.1425 -0.0375
                                         0.0000  0.0000  0.0000  0.0000 -0.0536
                                         0.0000  0.0000 -0.0715  0.0146  0.0000
                                         0.0000
 454. (0.00086) RY ( 4) C 15            s( 66.11%)p 0.08(  5.59%)d 0.40( 26.50%)
                                                  f 0.03(  1.79%)
                                         0.0000 -0.0058  0.8016  0.1360  0.0022
                                        -0.0121  0.0363  0.1048 -0.0136 -0.1706
                                        -0.1192  0.0000  0.0000  0.0000 -0.4210
                                         0.2673  0.0000  0.0000  0.0000  0.0000
                                         0.0761 -0.0525 -0.0856  0.0225  0.0000
                                        -0.0734 -0.0046  0.0000  0.0000 -0.0937
                                        -0.0612
 455. (0.00032) RY ( 5) C 15            s(  0.00%)p 1.00(  0.14%)d99.99( 91.55%)
                                                  f61.20(  8.31%)
                                         0.0000  0.0000 -0.0001  0.0000  0.0000
                                         0.0000  0.0000  0.0001  0.0000  0.0000
                                         0.0000 -0.0179 -0.0316 -0.0061  0.0000
                                         0.0000  0.8590 -0.1777  0.2040  0.3230
                                        -0.0001  0.0000 -0.0001 -0.0001 -0.0337
                                         0.0000  0.0000 -0.0810 -0.2746  0.0000
                                         0.0000
 456. (0.00030) RY ( 6) C 15            s(  3.02%)p 4.78( 14.42%)d22.91( 69.18%)
                                                  f 4.43( 13.38%)
                                         0.0000 -0.0015  0.1486 -0.0823  0.0366
                                        -0.0044  0.0773 -0.3389  0.0037 -0.0951
                                        -0.1196  0.0000  0.0000  0.0000  0.2024
                                         0.1459  0.0000  0.0000  0.0000  0.0001
                                        -0.4053  0.6672  0.1250 -0.0663  0.0001
                                        -0.0119 -0.1427  0.0000  0.0000 -0.2912
                                         0.1687
 457. (0.00025) RY ( 7) C 15            s( 21.87%)p 0.77( 16.86%)d 2.01( 43.90%)
                                                  f 0.79( 17.37%)
                                         0.0000 -0.0024  0.4342  0.1702  0.0340
                                        -0.0126  0.1296 -0.3812 -0.0090 -0.0080
                                        -0.0787  0.0000  0.0000  0.0000  0.5445
                                        -0.3167  0.0001  0.0000  0.0001  0.0001
                                         0.1284 -0.1569  0.0326 -0.0046  0.0000
                                         0.1334  0.0054  0.0000  0.0000  0.3940
                                         0.0252
 458. (0.00017) RY ( 8) C 15            s(  0.00%)p 1.00(  0.36%)d99.99( 96.58%)
                                                  f 8.38(  3.05%)
                                         0.0000  0.0000  0.0000  0.0000  0.0000
                                         0.0000  0.0000  0.0000  0.0000  0.0000
                                         0.0000  0.0025 -0.0330 -0.0505  0.0000
                                         0.0001 -0.1750  0.6043  0.5520  0.5152
                                        -0.0001 -0.0001 -0.0001 -0.0001  0.0051
                                         0.0000  0.0000 -0.1274  0.1194  0.0000
                                         0.0000
 459. (0.00008) RY ( 9) C 15            s( 16.55%)p 2.89( 47.87%)d 2.08( 34.44%)
                                                  f 0.07(  1.13%)
 460. (0.00005) RY (10) C 15            s(  1.56%)p30.67( 47.90%)d23.27( 36.35%)
                                                  f 9.08( 14.19%)
 461. (0.00002) RY (11) C 15            s( 25.25%)p 0.19(  4.88%)d 1.76( 44.54%)
                                                  f 1.00( 25.33%)
 462. (0.00002) RY (12) C 15            s( 31.75%)p 0.72( 22.92%)d 0.54( 17.06%)
                                                  f 0.89( 28.28%)
 463. (0.00001) RY (13) C 15            s(  9.18%)p 0.51(  4.69%)d 7.38( 67.79%)
                                                  f 2.00( 18.33%)
 464. (0.00001) RY (14) C 15            s( 16.27%)p 0.85( 13.81%)d 3.30( 53.71%)
                                                  f 1.00( 16.21%)
 465. (0.00001) RY (15) C 15            s(  2.49%)p10.76( 26.83%)d25.85( 64.44%)
                                                  f 2.50(  6.24%)
 466. (0.00000) RY (16) C 15            s(  0.00%)p 1.00( 86.05%)d 0.14( 12.30%)
                                                  f 0.02(  1.65%)
 467. (0.00000) RY (17) C 15            s( 10.89%)p 0.25(  2.78%)d 3.36( 36.59%)
                                                  f 4.57( 49.74%)
 468. (0.00000) RY (18) C 15            s(  0.00%)p 1.00(  0.51%)d 8.69(  4.41%)
                                                  f99.99( 95.09%)
 469. (0.00000) RY (19) C 15            s(  0.00%)p 1.00(  0.13%)d99.99( 34.36%)
                                                  f99.99( 65.51%)
 470. (0.00000) RY (20) C 15            s(  0.00%)p 1.00(  0.94%)d26.79( 25.07%)
                                                  f79.07( 74.00%)
 471. (0.00000) RY (21) C 15            s(  0.00%)p 1.00(  5.42%)d11.76( 63.80%)
                                                  f 5.67( 30.78%)
 472. (0.00000) RY (22) C 15            s( 37.03%)p 0.02(  0.85%)d 0.33( 12.24%)
                                                  f 1.35( 49.89%)
 473. (0.00000) RY (23) C 15            s(  0.00%)p 1.00( 10.20%)d 6.76( 69.03%)
                                                  f 2.04( 20.77%)
 474. (0.00000) RY (24) C 15            s(  4.86%)p 0.33(  1.61%)d 0.45(  2.20%)
                                                  f18.81( 91.33%)
 475. (0.00000) RY (25) C 15            s( 27.67%)p 0.09(  2.40%)d 0.30(  8.43%)
                                                  f 2.22( 61.51%)
 476. (0.00000) RY (26) C 15            s( 20.13%)p 0.04(  0.86%)d 3.75( 75.56%)
                                                  f 0.17(  3.45%)
 477. (0.00342) RY ( 1) H 16            s( 98.38%)p 0.01(  1.24%)d 0.00(  0.38%)
                                         0.0098  0.9918 -0.0009  0.0857 -0.0647
                                        -0.0227  0.0179  0.0000  0.0000  0.0357
                                         0.0000  0.0000 -0.0474  0.0171
 478. (0.00022) RY ( 2) H 16            s(  0.00%)p 1.00( 92.59%)d 0.08(  7.41%)
                                         0.0000  0.0000  0.0000  0.0001  0.0000
                                         0.0001  0.0000  0.9484 -0.1624  0.0000
                                         0.0000 -0.2722  0.0000  0.0001
 479. (0.00014) RY ( 3) H 16            s( 63.21%)p 0.56( 35.50%)d 0.02(  1.29%)
                                         0.0009 -0.0683  0.7921  0.2969 -0.4602
                                        -0.1690  0.1629  0.0000  0.0000  0.0900
                                         0.0000  0.0000 -0.0532  0.0439
 480. (0.00012) RY ( 4) H 16            s( 24.72%)p 2.53( 62.55%)d 0.51( 12.73%)
                                        -0.0009  0.0803  0.4907 -0.3665  0.6548
                                        -0.0983  0.2297  0.0001 -0.0001 -0.3354
                                         0.0001  0.0000  0.0370  0.1157
 481. (0.00004) RY ( 5) H 16            s(  0.11%)p99.99( 91.24%)d81.22(  8.65%)
 482. (0.00001) RY ( 6) H 16            s(  5.57%)p11.00( 61.20%)d 5.97( 33.24%)
 483. (0.00001) RY ( 7) H 16            s(  0.00%)p 1.00( 59.22%)d 0.69( 40.78%)
 484. (0.00000) RY ( 8) H 16            s(  1.21%)p32.48( 39.17%)d49.44( 59.62%)
 485. (0.00000) RY ( 9) H 16            s(  0.00%)p 1.00( 23.30%)d 3.29( 76.70%)
 486. (0.00000) RY (10) H 16            s(  0.00%)p 1.00( 24.89%)d 3.02( 75.11%)
 487. (0.00000) RY (11) H 16            s(  5.91%)p 3.70( 21.90%)d12.20( 72.18%)
 488. (0.00000) RY (12) H 16            s(  0.66%)p48.97( 32.20%)d99.99( 67.15%)
 489. (0.00000) RY (13) H 16            s(  0.27%)p99.99( 54.97%)d99.99( 44.76%)
 490. (0.00336) RY ( 1) H 17            s( 98.20%)p 0.01(  1.35%)d 0.00(  0.45%)
                                         0.0096  0.9909 -0.0007 -0.0904  0.0599
                                        -0.0322  0.0260  0.0000  0.0000 -0.0386
                                         0.0000  0.0000 -0.0517  0.0193
 491. (0.00022) RY ( 2) H 17            s(  0.00%)p 1.00( 93.48%)d 0.07(  6.52%)
                                         0.0000  0.0000  0.0000  0.0000  0.0000
                                         0.0001  0.0000  0.9473 -0.1933  0.0000
                                         0.0155 -0.2548  0.0000  0.0001
 492. (0.00014) RY ( 3) H 17            s( 70.58%)p 0.40( 28.56%)d 0.01(  0.86%)
                                        -0.0010 -0.0646  0.8377 -0.2862  0.3799
                                        -0.1616  0.1824  0.0000  0.0000 -0.0573
                                         0.0000  0.0000 -0.0554  0.0472
 493. (0.00010) RY ( 4) H 17            s( 19.48%)p 3.66( 71.36%)d 0.47(  9.16%)
                                         0.0016  0.0905  0.4320  0.5543 -0.6049
                                        -0.0657  0.1901  0.0000  0.0000  0.2868
                                         0.0000  0.0000  0.0172  0.0949
 494. (0.00005) RY ( 5) H 17            s(  0.18%)p99.99( 82.89%)d95.30( 16.93%)
 495. (0.00001) RY ( 6) H 17            s(  0.00%)p 1.00( 41.08%)d 1.43( 58.92%)
 496. (0.00000) RY ( 7) H 17            s(  2.16%)p18.35( 39.68%)d26.90( 58.16%)
 497. (0.00000) RY ( 8) H 17            s(  0.79%)p63.27( 50.16%)d61.88( 49.05%)
 498. (0.00000) RY ( 9) H 17            s(  0.00%)p 1.00( 40.18%)d 1.49( 59.82%)
 499. (0.00000) RY (10) H 17            s(  0.00%)p 1.00( 25.25%)d 2.96( 74.75%)
 500. (0.00000) RY (11) H 17            s(  0.28%)p99.99( 57.28%)d99.99( 42.44%)
 501. (0.00000) RY (12) H 17            s(  0.38%)p43.16( 16.55%)d99.99( 83.07%)
 502. (0.00000) RY (13) H 17            s(  7.97%)p 6.54( 52.15%)d 5.00( 39.88%)
 503. (0.00088) RY ( 1) H 18            s( 96.90%)p 0.03(  2.56%)d 0.01(  0.53%)
                                         0.0022  0.9844 -0.0024  0.0249 -0.1512
                                         0.0418 -0.0197  0.0000  0.0000  0.0201
                                         0.0000  0.0000  0.0679  0.0176
 504. (0.00022) RY ( 2) H 18            s( 14.26%)p 5.29( 75.44%)d 0.72( 10.30%)
                                         0.0043 -0.0181  0.3772  0.1579 -0.2394
                                        -0.4229 -0.7023  0.0001  0.0001  0.1369
                                         0.0000 -0.0001 -0.2837 -0.0619
 505. (0.00011) RY ( 3) H 18            s( 58.17%)p 0.62( 36.08%)d 0.10(  5.75%)
                                         0.0012  0.0625  0.7601 -0.2843  0.4704
                                         0.2362 -0.0543  0.0000  0.0000 -0.1540
                                         0.0000  0.0000  0.1730 -0.0621
 506. (0.00010) RY ( 4) H 18            s(  0.00%)p 1.00( 86.00%)d 0.16( 14.00%)
 507. (0.00004) RY ( 5) H 18            s(  2.68%)p32.57( 87.22%)d 3.77( 10.10%)
 508. (0.00001) RY ( 6) H 18            s( 23.99%)p 2.45( 58.83%)d 0.72( 17.18%)
 509. (0.00001) RY ( 7) H 18            s(  2.72%)p21.81( 59.31%)d13.96( 37.97%)
 510. (0.00001) RY ( 8) H 18            s(  0.00%)p 1.00( 82.71%)d 0.21( 17.29%)
 511. (0.00000) RY ( 9) H 18            s(  0.79%)p23.75( 18.74%)d99.99( 80.48%)
 512. (0.00000) RY (10) H 18            s(  0.05%)p99.99( 43.00%)d99.99( 56.96%)
 513. (0.00000) RY (11) H 18            s(  0.49%)p38.39( 18.79%)d99.99( 80.72%)
 514. (0.00000) RY (12) H 18            s(  0.00%)p 1.00(  4.15%)d23.07( 95.85%)
 515. (0.00000) RY (13) H 18            s(  0.00%)p 1.00( 27.14%)d 2.68( 72.86%)
 516. (0.00046) RY ( 1) H 19            s( 88.95%)p 0.11(  9.66%)d 0.02(  1.38%)
                                        -0.0019  0.9429 -0.0219 -0.0635 -0.0891
                                         0.1699 -0.2362  0.0000  0.0000  0.0288
                                         0.0000  0.0000 -0.1049  0.0450
 517. (0.00013) RY ( 2) H 19            s(  1.22%)p61.73( 75.60%)d18.92( 23.17%)
                                        -0.0001  0.1107 -0.0010  0.7036  0.5099
                                         0.0279  0.0156  0.0000  0.0000 -0.4812
                                         0.0001  0.0000  0.0116 -0.0059
 518. (0.00011) RY ( 3) H 19            s(  0.00%)p 1.00( 88.11%)d 0.13( 11.89%)
                                         0.0000  0.0000  0.0000  0.0000  0.0000
                                        -0.0001 -0.0001 -0.4316  0.8335  0.0000
                                        -0.0112  0.3447  0.0000 -0.0001
 519. (0.00010) RY ( 4) H 19            s( 86.95%)p 0.15( 12.65%)d 0.00(  0.41%)
 520. (0.00003) RY ( 5) H 19            s(  0.35%)p99.99( 96.61%)d 8.64(  3.04%)
 521. (0.00001) RY ( 6) H 19            s( 17.11%)p 3.33( 56.95%)d 1.52( 25.95%)
 522. (0.00001) RY ( 7) H 19            s(  0.00%)p 1.00( 69.12%)d 0.45( 30.88%)
 523. (0.00000) RY ( 8) H 19            s(  0.00%)p 1.00( 11.97%)d 7.36( 88.03%)
 524. (0.00000) RY ( 9) H 19            s(  2.25%)p17.20( 38.79%)d26.15( 58.96%)
 525. (0.00000) RY (10) H 19            s(  1.83%)p13.18( 24.18%)d40.35( 73.99%)
 526. (0.00000) RY (11) H 19            s(  0.80%)p54.50( 43.52%)d69.71( 55.68%)
 527. (0.00000) RY (12) H 19            s(  0.57%)p74.07( 42.02%)d99.99( 57.41%)
 528. (0.00000) RY (13) H 19            s(  0.00%)p 1.00( 30.81%)d 2.25( 69.19%)
 529. (0.00040) RY ( 1) H 20            s( 88.88%)p 0.11(  9.98%)d 0.01(  1.14%)
                                        -0.0022  0.9423 -0.0305 -0.1270  0.2483
                                         0.0680  0.1318  0.0000  0.0000 -0.0794
                                         0.0000  0.0000  0.0501  0.0508
 530. (0.00017) RY ( 2) H 20            s(  0.00%)p 1.00( 90.46%)d 0.11(  9.54%)
                                         0.0000  0.0000  0.0000  0.0000  0.0000
                                        -0.0001  0.0001 -0.4197  0.8535  0.0000
                                        -0.2727  0.1451  0.0000  0.0000
 531. (0.00011) RY ( 3) H 20            s(  0.06%)p99.99( 71.78%)d99.99( 28.16%)
                                         0.0001  0.0094  0.0235  0.3161 -0.2739
                                         0.5680  0.4694 -0.0001 -0.0001  0.2859
                                         0.0000  0.0001  0.4470 -0.0034
 532. (0.00010) RY ( 4) H 20            s( 84.51%)p 0.17( 14.29%)d 0.01(  1.20%)
                                         0.0013  0.1486  0.9072  0.0380 -0.3220
                                        -0.0483 -0.1882  0.0000  0.0000 -0.0546
                                         0.0000  0.0000  0.0182 -0.0931
 533. (0.00002) RY ( 5) H 20            s(  0.07%)p99.99( 96.46%)d46.85(  3.47%)
 534. (0.00002) RY ( 6) H 20            s( 20.20%)p 2.83( 57.24%)d 1.12( 22.56%)
 535. (0.00001) RY ( 7) H 20            s(  0.00%)p 1.00( 77.92%)d 0.28( 22.08%)
 536. (0.00000) RY ( 8) H 20            s(  4.12%)p10.63( 43.77%)d12.66( 52.11%)
 537. (0.00000) RY ( 9) H 20            s(  0.00%)p 0.00(  0.01%)d 1.00( 99.99%)
 538. (0.00000) RY (10) H 20            s(  0.00%)p 1.00( 31.61%)d 2.16( 68.39%)
 539. (0.00000) RY (11) H 20            s(  1.12%)p48.38( 54.36%)d39.63( 44.52%)
 540. (0.00000) RY (12) H 20            s(  0.00%)p 1.00( 31.59%)d 2.17( 68.41%)
 541. (0.00000) RY (13) H 20            s(  1.06%)p19.43( 20.51%)d74.29( 78.43%)
 542. (0.00045) RY ( 1) H 21            s( 89.26%)p 0.11(  9.47%)d 0.01(  1.27%)
                                        -0.0020  0.9445 -0.0235 -0.1691 -0.2390
                                        -0.0571 -0.0759  0.0000  0.0000  0.0999
                                         0.0000  0.0000  0.0278  0.0437
 543. (0.00013) RY ( 2) H 21            s(  0.58%)p99.99( 76.12%)d40.42( 23.30%)
                                        -0.0002  0.0755 -0.0081  0.3636  0.2819
                                        -0.6070 -0.4255  0.0001  0.0000 -0.2136
                                         0.0000  0.0001  0.4328 -0.0058
 544. (0.00012) RY ( 3) H 21            s(  0.00%)p 1.00( 88.06%)d 0.14( 11.94%)
                                         0.0000  0.0000  0.0000  0.0000  0.0000
                                        -0.0001  0.0001 -0.4280  0.8351  0.0000
                                        -0.2987 -0.1738  0.0000  0.0001
 545. (0.00010) RY ( 4) H 21            s( 86.12%)p 0.15( 13.25%)d 0.01(  0.62%)
 546. (0.00003) RY ( 5) H 21            s(  0.25%)p99.99( 96.57%)d12.79(  3.18%)
 547. (0.00001) RY ( 6) H 21            s( 17.95%)p 3.14( 56.34%)d 1.43( 25.71%)
 548. (0.00001) RY ( 7) H 21            s(  0.00%)p 1.00( 67.64%)d 0.48( 32.36%)
 549. (0.00000) RY ( 8) H 21            s(  0.00%)p 1.00( 14.00%)d 6.14( 86.00%)
 550. (0.00000) RY ( 9) H 21            s(  2.74%)p14.40( 39.49%)d21.06( 57.77%)
 551. (0.00000) RY (10) H 21            s(  1.99%)p14.08( 27.97%)d35.28( 70.05%)
 552. (0.00000) RY (11) H 21            s(  0.75%)p51.07( 38.50%)d80.57( 60.74%)
 553. (0.00000) RY (12) H 21            s(  0.39%)p99.99( 42.25%)d99.99( 57.36%)
 554. (0.00000) RY (13) H 21            s(  0.00%)p 1.00( 30.30%)d 2.30( 69.70%)
 555. (0.00067) RY ( 1) H 22            s( 95.90%)p 0.03(  3.25%)d 0.01(  0.85%)
                                         0.0005  0.9792 -0.0142 -0.0325 -0.0130
                                        -0.0637  0.1649  0.0000  0.0000 -0.0558
                                         0.0000  0.0000 -0.0690  0.0257
 556. (0.00016) RY ( 2) H 22            s( 20.11%)p 3.32( 66.81%)d 0.65( 13.08%)
                                         0.0004  0.0792  0.4414  0.3836  0.7018
                                         0.0298 -0.1661  0.0000  0.0000  0.3581
                                         0.0000  0.0000 -0.0120 -0.0487
 557. (0.00012) RY ( 3) H 22            s(  0.00%)p 1.00( 88.96%)d 0.12( 11.04%)
                                         0.0000  0.0000  0.0000  0.0000  0.0000
                                         0.0001  0.0001  0.6800 -0.6536  0.0000
                                         0.0389  0.3299  0.0000 -0.0001
 558. (0.00012) RY ( 4) H 22            s( 61.13%)p 0.55( 33.67%)d 0.09(  5.20%)
                                         0.0019  0.0578  0.7797 -0.2728 -0.3328
                                         0.0436 -0.3868  0.0000  0.0000 -0.2181
                                         0.0000  0.0000  0.0438 -0.0506
 559. (0.00003) RY ( 5) H 22            s(  0.33%)p99.99( 90.33%)d28.62(  9.35%)
 560. (0.00001) RY ( 6) H 22            s( 12.99%)p 3.01( 39.03%)d 3.70( 47.99%)
 561. (0.00001) RY ( 7) H 22            s(  0.00%)p 1.00( 78.23%)d 0.28( 21.77%)
 562. (0.00000) RY ( 8) H 22            s(  6.70%)p10.91( 73.11%)d 3.01( 20.19%)
 563. (0.00000) RY ( 9) H 22            s(  0.00%)p 1.00(  2.57%)d37.89( 97.43%)
 564. (0.00000) RY (10) H 22            s(  0.00%)p 1.00( 30.23%)d 2.31( 69.77%)
 565. (0.00000) RY (11) H 22            s(  1.48%)p30.64( 45.25%)d36.07( 53.27%)
 566. (0.00000) RY (12) H 22            s(  1.01%)p36.29( 36.68%)d61.65( 62.31%)
 567. (0.00000) RY (13) H 22            s(  0.39%)p30.16( 11.85%)d99.99( 87.75%)
 568. (0.00068) RY ( 1) H 23            s( 90.59%)p 0.09(  7.70%)d 0.02(  1.71%)
                                        -0.0005  0.9516 -0.0199  0.1344  0.2265
                                        -0.0709 -0.0512  0.0000  0.0000 -0.1258
                                         0.0000  0.0000 -0.0119  0.0342
 569. (0.00013) RY ( 2) H 23            s( 77.47%)p 0.28( 21.47%)d 0.01(  1.06%)
                                         0.0039  0.1423  0.8686 -0.2449 -0.3878
                                        -0.0590  0.0299  0.0000  0.0001 -0.0269
                                         0.0000  0.0000  0.0585 -0.0800
 570. (0.00011) RY ( 3) H 23            s(  0.00%)p 1.00( 90.78%)d 0.10(  9.22%)
                                         0.0000  0.0000  0.0001  0.0000 -0.0001
                                         0.0000 -0.0001  0.4011 -0.8642  0.0000
                                        -0.2873  0.0984  0.0000  0.0000
 571. (0.00007) RY ( 4) H 23            s(  5.32%)p13.73( 73.10%)d 4.05( 21.58%)
 572. (0.00003) RY ( 5) H 23            s(  0.40%)p99.99( 99.22%)d 0.96(  0.38%)
 573. (0.00002) RY ( 6) H 23            s(  0.00%)p 1.00( 74.67%)d 0.34( 25.33%)
 574. (0.00001) RY ( 7) H 23            s( 18.73%)p 3.63( 67.96%)d 0.71( 13.32%)
 575. (0.00000) RY ( 8) H 23            s(  0.00%)p 1.00( 10.50%)d 8.53( 89.50%)
 576. (0.00000) RY ( 9) H 23            s(  1.92%)p 6.99( 13.41%)d44.17( 84.68%)
 577. (0.00000) RY (10) H 23            s(  0.00%)p 1.00( 24.06%)d 3.16( 75.94%)
 578. (0.00000) RY (11) H 23            s(  0.12%)p74.61(  9.11%)d99.99( 90.77%)
 579. (0.00000) RY (12) H 23            s(  1.37%)p20.91( 28.69%)d50.98( 69.94%)
 580. (0.00000) RY (13) H 23            s(  4.12%)p19.26( 79.32%)d 4.02( 16.56%)
 581. (0.00031) RY ( 1) H 24            s( 91.88%)p 0.08(  7.09%)d 0.01(  1.03%)
                                        -0.0020  0.9575 -0.0447  0.1265 -0.2293
                                         0.0223 -0.0426  0.0000  0.0000  0.0955
                                         0.0000  0.0000  0.0262  0.0230
 582. (0.00019) RY ( 2) H 24            s(  0.00%)p 1.00( 90.54%)d 0.10(  9.46%)
                                         0.0000  0.0000  0.0000  0.0000  0.0000
                                        -0.0001  0.0001 -0.4919  0.8145  0.0000
                                         0.2862  0.1128  0.0000  0.0000
 583. (0.00012) RY ( 3) H 24            s( 65.27%)p 0.45( 29.38%)d 0.08(  5.35%)
                                         0.0018  0.1779  0.7881 -0.1296  0.4905
                                         0.1776  0.0696  0.0000  0.0000 -0.1049
                                         0.0000  0.0000  0.1857 -0.0898
 584. (0.00011) RY ( 4) H 24            s( 10.45%)p 5.98( 62.48%)d 2.59( 27.06%)
                                         0.0010 -0.0348  0.3215  0.2339  0.0418
                                        -0.5667 -0.4972  0.0001  0.0001  0.3262
                                         0.0000 -0.0001 -0.3992 -0.0698
 585. (0.00002) RY ( 5) H 24            s( 25.41%)p 2.24( 56.90%)d 0.70( 17.69%)
 586. (0.00001) RY ( 6) H 24            s(  0.00%)p 1.00( 76.33%)d 0.31( 23.67%)
 587. (0.00001) RY ( 7) H 24            s(  0.03%)p99.99( 90.58%)d99.99(  9.39%)
 588. (0.00000) RY ( 8) H 24            s(  1.49%)p20.21( 30.02%)d46.10( 68.49%)
 589. (0.00000) RY ( 9) H 24            s(  0.00%)p 1.00( 31.51%)d 2.17( 68.49%)
 590. (0.00000) RY (10) H 24            s(  0.27%)p99.99( 62.56%)d99.99( 37.17%)
 591. (0.00000) RY (11) H 24            s(  0.28%)p99.99( 29.25%)d99.99( 70.48%)
 592. (0.00000) RY (12) H 24            s(  0.00%)p 1.00(  1.62%)d60.64( 98.38%)
 593. (0.00000) RY (13) H 24            s(  4.97%)p 6.39( 31.71%)d12.75( 63.32%)
 594. (0.00056) RY ( 1) H 25            s( 90.07%)p 0.10(  8.74%)d 0.01(  1.19%)
                                        -0.0012  0.9488 -0.0205  0.0531  0.0785
                                         0.1480 -0.2378  0.0000  0.0000 -0.0123
                                         0.0000  0.0000 -0.0988  0.0451
 595. (0.00012) RY ( 2) H 25            s(  7.22%)p 9.55( 68.95%)d 3.30( 23.83%)
                                         0.0007  0.1170  0.2419 -0.7119 -0.4151
                                        -0.0052  0.1018  0.0000  0.0000  0.4862
                                        -0.0001  0.0000  0.0384 -0.0218
 596. (0.00011) RY ( 3) H 25            s( 80.40%)p 0.22( 17.44%)d 0.03(  2.16%)
                                         0.0025  0.0944  0.8917  0.1846  0.1513
                                        -0.1531  0.3066  0.0000  0.0001 -0.1323
                                         0.0000  0.0000 -0.0345 -0.0538
 597. (0.00010) RY ( 4) H 25            s(  0.00%)p 1.00( 83.98%)d 0.19( 16.02%)
 598. (0.00002) RY ( 5) H 25            s(  0.37%)p99.99( 97.35%)d 6.09(  2.27%)
 599. (0.00001) RY ( 6) H 25            s( 16.15%)p 3.58( 57.83%)d 1.61( 26.02%)
 600. (0.00000) RY ( 7) H 25            s(  0.00%)p 1.00( 13.16%)d 6.60( 86.84%)
 601. (0.00000) RY ( 8) H 25            s(  1.19%)p37.65( 44.78%)d45.42( 54.03%)
 602. (0.00000) RY ( 9) H 25            s(  0.00%)p 1.00( 68.66%)d 0.46( 31.34%)
 603. (0.00000) RY (10) H 25            s(  0.00%)p 1.00( 34.20%)d 1.92( 65.80%)
 604. (0.00000) RY (11) H 25            s(  2.33%)p13.27( 30.95%)d28.61( 66.72%)
 605. (0.00000) RY (12) H 25            s(  1.62%)p24.25( 39.27%)d36.51( 59.11%)
 606. (0.00000) RY (13) H 25            s(  0.69%)p50.35( 34.66%)d93.93( 64.66%)
 607. (0.00083) RY ( 1) H 26            s( 96.72%)p 0.03(  2.80%)d 0.00(  0.48%)
                                         0.0023  0.9835  0.0011 -0.0240  0.1348
                                         0.0372 -0.0888  0.0000  0.0000 -0.0158
                                         0.0000  0.0000  0.0670  0.0070
 608. (0.00020) RY ( 2) H 26            s( 12.03%)p 6.29( 75.61%)d 1.03( 12.37%)
                                         0.0037 -0.0539  0.3426 -0.2043  0.2042
                                        -0.5060 -0.6455  0.0001  0.0001 -0.1620
                                         0.0000 -0.0001 -0.3034 -0.0734
 609. (0.00012) RY ( 3) H 26            s( 61.98%)p 0.56( 34.62%)d 0.05(  3.39%)
                                         0.0013  0.0528  0.7855  0.2734 -0.4812
                                         0.1907 -0.0597 -0.0001  0.0001  0.1214
                                         0.0000  0.0000  0.1270 -0.0552
 610. (0.00010) RY ( 4) H 26            s(  0.00%)p 1.00( 84.91%)d 0.18( 15.09%)
                                         0.0000  0.0000  0.0001  0.0000  0.0000
                                         0.0001 -0.0001  0.6780 -0.6240  0.0000
                                         0.2737 -0.2757  0.0000  0.0001
 611. (0.00003) RY ( 5) H 26            s(  3.71%)p23.65( 87.83%)d 2.28(  8.45%)
 612. (0.00001) RY ( 6) H 26            s( 19.37%)p 2.73( 52.94%)d 1.43( 27.69%)
 613. (0.00000) RY ( 7) H 26            s(  4.68%)p12.40( 58.03%)d 7.97( 37.29%)
 614. (0.00000) RY ( 8) H 26            s(  0.00%)p 1.00( 63.25%)d 0.58( 36.75%)
 615. (0.00000) RY ( 9) H 26            s(  0.35%)p41.08( 14.46%)d99.99( 85.18%)
 616. (0.00000) RY (10) H 26            s(  0.00%)p 1.00( 14.66%)d 5.82( 85.34%)
 617. (0.00000) RY (11) H 26            s(  0.73%)p55.69( 40.46%)d80.94( 58.81%)
 618. (0.00000) RY (12) H 26            s(  0.46%)p71.79( 33.21%)d99.99( 66.33%)
 619. (0.00000) RY (13) H 26            s(  0.00%)p 1.00( 37.18%)d 1.69( 62.82%)


 NHO DIRECTIONALITY AND BOND BENDING (deviation from line of nuclear centers at
                                      the position of maximum hybrid amplitude)

         [Thresholds for printing:  angular deviation  >  1.0 degree]
                                    p- or d-character  > 25.0%
                                    orbital occupancy  >  0.10e

                        Line of Centers        Hybrid 1             Hybrid 2
                        ---------------  -------------------  ------------------
           NBO            Theta   Phi    Theta   Phi    Dev   Theta   Phi    Dev
 ===============================================================================
  16. LP ( 1) C  2          --     --      0.6  115.7   --      --     --    --
  17. LP ( 1) N  3          --     --     90.0   89.8   --      --     --    --
  18. LP ( 1) N 11          --     --     90.0  267.4   --      --     --    --
  20. BD ( 1) C  1- N 11   90.0  327.9     --     --    --     90.0  149.0   1.1
  21. BD ( 2) C  1- N 11   90.0  327.9   178.5  337.2  88.5   178.8  101.0  89.2
  22. BD ( 1) C  1- C 15   90.0   88.1    90.0   89.2   1.2     --     --    --
  23. BD ( 1) C  2- N  3   90.0  151.7    90.0  150.6   1.1     --     --    --
  24. BD ( 1) C  2- H 16   90.0  273.4    90.0  272.3   1.2     --     --    --
  25. BD ( 1) N  3- C  4   90.0  208.4     --     --    --     90.0   29.5   1.2
  26. BD ( 2) N  3- C  4   90.0  208.4     1.4  233.8  88.8     1.2   35.0  88.8
  29. BD ( 1) C  5- C  6   90.0   92.9    90.0   91.0   1.9     --     --    --
  30. BD ( 1) C  5- C 10   90.0  209.6    90.0  211.4   1.8     --     --    --
  31. BD ( 2) C  5- C 10   90.0  209.6     0.9  192.5  89.1     0.7   55.7  89.3
  32. BD ( 1) C  6- C  7   90.0  151.6    90.0  150.4   1.3    90.0  333.0   1.4
  33. BD ( 2) C  6- C  7   90.0  151.6   179.1  167.2  89.1   179.0  319.8  89.1
  35. BD ( 1) C  7- C  8   90.0  210.4    90.0  208.6   1.8    90.0   32.7   2.3
  37. BD ( 1) C  8- C  9   90.0  272.1    90.0  269.8   2.3    90.0   94.0   1.9
  38. BD ( 2) C  8- C  9   90.0  272.1   179.2  290.5  89.2     0.9   78.2  89.1
  40. BD ( 1) C  9- C 10   90.0  331.2    90.0  329.7   1.5    90.0  152.7   1.4
  43. BD ( 1) N 11- C 12   90.0   29.2    90.0   26.6   2.6     --     --    --
  44. BD ( 1) C 12- C 13   90.0   84.1    90.0   82.7   1.3    90.0  266.2   2.1
  45. BD ( 2) C 12- C 13   90.0   84.1     1.1   95.3  89.0   179.2  244.0  89.3
  47. BD ( 1) C 13- C 14   90.0  147.4    90.0  144.7   2.8    90.0  329.7   2.3
  49. BD ( 1) C 14- C 15   90.0  207.8    90.0  206.0   1.8    90.0   29.4   1.6
  50. BD ( 2) C 14- C 15   90.0  207.8   178.9  216.6  88.9     0.9   12.4  89.1


 3-Center, 4-Electron A:-B-:C Hyperbonds (A-B :C <=> A: B-C)
              [threshold for detection: 33.3%]

                                                  NBOs       3-center hybrids
                                              -------------  ----------------
       Hyperbond A:-B-:C   %A-B/%B-C   occ    BD(A-B) LP(C)  h(A)  h(B)  h(C)
      -------------------  ---------  ------  ------- -----  ----  ----  ----
   1.  N 11:- C  1-: C  2  51.4/48.6  3.3959      21     16    23    24    16
   2.  C  4:- N  3-: C  2  54.2/45.8  3.5137      26     16    33    34    16


 SECOND ORDER PERTURBATION THEORY ANALYSIS OF FOCK MATRIX IN NBO BASIS

     Threshold for printing:   0.50 kcal/mol
                                                          E(2) E(NL)-E(L) F(L,NL)
      Donor (L) NBO              Acceptor (NL) NBO      kcal/mol   a.u.    a.u.
 ===============================================================================

 within unit  1
   16. LP ( 1) C  2            55. BD*( 2) C  1- N 11    142.53    0.15   0.131
   16. LP ( 1) C  2            60. BD*( 2) N  3- C  4    165.10    0.16   0.147
   16. LP ( 1) C  2            65. BD*( 2) C  5- C 10      0.66    0.17   0.009
   16. LP ( 1) C  2            89. RY ( 3) C  1            0.53    1.17   0.022
   16. LP ( 1) C  2            91. RY ( 5) C  1            0.95    1.94   0.038
   16. LP ( 1) C  2           114. RY ( 2) C  2            3.71    0.64   0.043
   16. LP ( 1) C  2           141. RY ( 3) N  3            1.33    2.68   0.053
   16. LP ( 1) C  2           142. RY ( 4) N  3            1.90    0.83   0.035
   16. LP ( 1) C  2           478. RY ( 2) H 16            0.76    1.85   0.034
   17. LP ( 1) N  3            53. BD*( 1) C  1- C  2      4.64    0.91   0.058
   17. LP ( 1) N  3            58. BD*( 1) C  2- H 16     14.73    0.79   0.096
   17. LP ( 1) N  3            61. BD*( 1) C  4- C  5      4.37    0.90   0.056
   17. LP ( 1) N  3            62. BD*( 1) C  4- H 17     15.15    0.78   0.097
   17. LP ( 1) N  3            64. BD*( 1) C  5- C 10      0.51    0.92   0.019
   17. LP ( 1) N  3            83. BD*( 1) C 14- C 15      0.54    0.97   0.020
   17. LP ( 1) N  3           113. RY ( 1) C  2            4.36    1.79   0.079
   17. LP ( 1) N  3           165. RY ( 1) C  4            4.42    1.77   0.079
   18. LP ( 1) N 11            53. BD*( 1) C  1- C  2      2.48    0.93   0.043
   18. LP ( 1) N 11            56. BD*( 1) C  1- C 15     12.95    0.92   0.097
   18. LP ( 1) N 11            78. BD*( 1) C 12- C 13     12.46    0.95   0.097
   18. LP ( 1) N 11            80. BD*( 1) C 12- H 23      6.01    0.81   0.062
   18. LP ( 1) N 11            87. RY ( 1) C  1            3.15    1.67   0.065
   18. LP ( 1) N 11           373. RY ( 1) C 12            3.55    1.70   0.069
   18. LP ( 1) N 11           381. RY ( 9) C 12            0.51    3.28   0.036
   19. BD ( 1) C  1- C  2      54. BD*( 1) C  1- N 11      0.57    1.20   0.023
   19. BD ( 1) C  1- C  2      56. BD*( 1) C  1- C 15      0.62    1.19   0.024
   19. BD ( 1) C  1- C  2      57. BD*( 1) C  2- N  3      1.04    1.27   0.032
   19. BD ( 1) C  1- C  2      59. BD*( 1) N  3- C  4      3.60    1.29   0.061
   19. BD ( 1) C  1- C  2      77. BD*( 1) N 11- C 12      3.21    1.25   0.057
   19. BD ( 1) C  1- C  2      83. BD*( 1) C 14- C 15      1.97    1.26   0.045
   19. BD ( 1) C  1- C  2     139. RY ( 1) N  3            0.99    1.58   0.035
   19. BD ( 1) C  1- C  2     347. RY ( 1) N 11            1.01    1.56   0.035
   19. BD ( 1) C  1- C  2     451. RY ( 1) C 15            0.99    2.17   0.041
   20. BD ( 1) C  1- N 11      56. BD*( 1) C  1- C 15      0.50    1.31   0.023
   20. BD ( 1) C  1- N 11      57. BD*( 1) C  2- N  3      1.56    1.40   0.042
   20. BD ( 1) C  1- N 11      80. BD*( 1) C 12- H 23      2.85    1.20   0.052
   20. BD ( 1) C  1- N 11      86. BD*( 1) C 15- H 26      1.76    1.24   0.042
   20. BD ( 1) C  1- N 11     115. RY ( 3) C  2            0.73    2.23   0.036
   20. BD ( 1) C  1- N 11     374. RY ( 2) C 12            2.69    2.11   0.067
   21. BD ( 2) C  1- N 11      79. BD*( 2) C 12- C 13     48.56    0.38   0.121
   21. BD ( 2) C  1- N 11      84. BD*( 2) C 14- C 15     13.67    0.39   0.065
   21. BD ( 2) C  1- N 11     114. RY ( 2) C  2            1.06    0.85   0.027
   21. BD ( 2) C  1- N 11     375. RY ( 3) C 12            3.07    1.49   0.060
   21. BD ( 2) C  1- N 11     453. RY ( 3) C 15            0.97    0.83   0.025
   22. BD ( 1) C  1- C 15      53. BD*( 1) C  1- C  2      0.78    1.21   0.027
   22. BD ( 1) C  1- C 15      58. BD*( 1) C  2- H 16      2.20    1.09   0.044
   22. BD ( 1) C  1- C 15      83. BD*( 1) C 14- C 15      0.85    1.27   0.029
   22. BD ( 1) C  1- C 15      85. BD*( 1) C 14- H 25      3.21    1.11   0.053
   22. BD ( 1) C  1- C 15     115. RY ( 3) C  2            1.11    2.12   0.043
   22. BD ( 1) C  1- C 15     347. RY ( 1) N 11            0.99    1.57   0.035
   22. BD ( 1) C  1- C 15     425. RY ( 1) C 14            1.08    2.18   0.043
   22. BD ( 1) C  1- C 15     426. RY ( 2) C 14            0.93    1.83   0.037
   23. BD ( 1) C  2- N  3      53. BD*( 1) C  1- C  2      0.88    1.34   0.031
   23. BD ( 1) C  2- N  3      54. BD*( 1) C  1- N 11      2.01    1.34   0.046
   23. BD ( 1) C  2- N  3      59. BD*( 1) N  3- C  4      0.80    1.43   0.030
   23. BD ( 1) C  2- N  3      61. BD*( 1) C  4- C  5      2.82    1.33   0.055
   23. BD ( 1) C  2- N  3      87. RY ( 1) C  1            0.61    2.08   0.032
   23. BD ( 1) C  2- N  3      88. RY ( 2) C  1            0.53    2.13   0.030
   23. BD ( 1) C  2- N  3     167. RY ( 3) C  4            1.85    2.32   0.058
   23. BD ( 1) C  2- N  3     168. RY ( 4) C  4            0.64    2.26   0.034
   24. BD ( 1) C  2- H 16      56. BD*( 1) C  1- C 15      5.11    1.08   0.066
   24. BD ( 1) C  2- H 16      87. RY ( 1) C  1            0.74    1.83   0.033
   24. BD ( 1) C  2- H 16      90. RY ( 4) C  1            0.94    2.69   0.045
   24. BD ( 1) C  2- H 16     139. RY ( 1) N  3            1.01    1.47   0.034
   24. BD ( 1) C  2- H 16     140. RY ( 2) N  3            0.61    1.92   0.030
   25. BD ( 1) N  3- C  4      53. BD*( 1) C  1- C  2      2.37    1.35   0.051
   25. BD ( 1) N  3- C  4      57. BD*( 1) C  2- N  3      0.83    1.42   0.031
   25. BD ( 1) N  3- C  4      61. BD*( 1) C  4- C  5      1.12    1.34   0.035
   25. BD ( 1) N  3- C  4      64. BD*( 1) C  5- C 10      2.05    1.36   0.047
   25. BD ( 1) N  3- C  4     115. RY ( 3) C  2            1.84    2.26   0.058
   25. BD ( 1) N  3- C  4     116. RY ( 4) C  2            0.98    2.14   0.041
   25. BD ( 1) N  3- C  4     192. RY ( 2) C  5            1.13    2.17   0.044
   26. BD ( 2) N  3- C  4      60. BD*( 2) N  3- C  4      3.69    0.39   0.034
   26. BD ( 2) N  3- C  4      65. BD*( 2) C  5- C 10     21.37    0.39   0.082
   26. BD ( 2) N  3- C  4     114. RY ( 2) C  2            2.75    0.86   0.043
   26. BD ( 2) N  3- C  4     194. RY ( 4) C  5            0.69    2.42   0.036
   27. BD ( 1) C  4- C  5      57. BD*( 1) C  2- N  3      3.68    1.27   0.061
   27. BD ( 1) C  4- C  5      59. BD*( 1) N  3- C  4      1.14    1.28   0.034
   27. BD ( 1) C  4- C  5      63. BD*( 1) C  5- C  6      0.79    1.21   0.028
   27. BD ( 1) C  4- C  5      64. BD*( 1) C  5- C 10      0.75    1.21   0.027
   27. BD ( 1) C  4- C  5      66. BD*( 1) C  6- C  7      2.25    1.25   0.047
   27. BD ( 1) C  4- C  5      74. BD*( 1) C  9- C 10      2.36    1.24   0.048
   27. BD ( 1) C  4- C  5     139. RY ( 1) N  3            1.01    1.58   0.036
   27. BD ( 1) C  4- C  5     217. RY ( 1) C  6            1.20    2.17   0.046
   27. BD ( 1) C  4- C  5     321. RY ( 1) C 10            1.43    2.17   0.050
   28. BD ( 1) C  4- H 17      63. BD*( 1) C  5- C  6      5.40    1.11   0.069
   28. BD ( 1) C  4- H 17     139. RY ( 1) N  3            1.12    1.47   0.036
   28. BD ( 1) C  4- H 17     191. RY ( 1) C  5            0.62    1.92   0.031
   28. BD ( 1) C  4- H 17     192. RY ( 2) C  5            1.04    1.91   0.040
   29. BD ( 1) C  5- C  6      61. BD*( 1) C  4- C  5      0.88    1.20   0.029
   29. BD ( 1) C  5- C  6      62. BD*( 1) C  4- H 17      2.19    1.07   0.043
   29. BD ( 1) C  5- C  6      64. BD*( 1) C  5- C 10      0.92    1.22   0.030
   29. BD ( 1) C  5- C  6      66. BD*( 1) C  6- C  7      0.99    1.26   0.032
   29. BD ( 1) C  5- C  6      70. BD*( 1) C  7- H 19      2.77    1.11   0.050
   29. BD ( 1) C  5- C  6      76. BD*( 1) C 10- H 22      2.97    1.11   0.051
   29. BD ( 1) C  5- C  6     167. RY ( 3) C  4            1.00    2.18   0.042
   29. BD ( 1) C  5- C  6     243. RY ( 1) C  7            0.93    2.18   0.040
   29. BD ( 1) C  5- C  6     244. RY ( 2) C  7            0.80    1.92   0.035
   29. BD ( 1) C  5- C  6     321. RY ( 1) C 10            0.94    2.18   0.040
   30. BD ( 1) C  5- C 10      59. BD*( 1) N  3- C  4      1.92    1.30   0.045
   30. BD ( 1) C  5- C 10      61. BD*( 1) C  4- C  5      0.76    1.20   0.027
   30. BD ( 1) C  5- C 10      63. BD*( 1) C  5- C  6      0.95    1.22   0.030
   30. BD ( 1) C  5- C 10      68. BD*( 1) C  6- H 18      2.81    1.13   0.050
   30. BD ( 1) C  5- C 10      74. BD*( 1) C  9- C 10      0.97    1.25   0.031
   30. BD ( 1) C  5- C 10      75. BD*( 1) C  9- H 21      2.66    1.11   0.049
   30. BD ( 1) C  5- C 10     167. RY ( 3) C  4            1.31    2.19   0.048
   30. BD ( 1) C  5- C 10     217. RY ( 1) C  6            1.00    2.19   0.042
   30. BD ( 1) C  5- C 10     295. RY ( 1) C  9            0.92    2.18   0.040
   30. BD ( 1) C  5- C 10     296. RY ( 2) C  9            0.79    1.93   0.035
   31. BD ( 2) C  5- C 10      60. BD*( 2) N  3- C  4     19.97    0.33   0.072
   31. BD ( 2) C  5- C 10      67. BD*( 2) C  6- C  7     24.39    0.34   0.081
   31. BD ( 2) C  5- C 10      72. BD*( 2) C  8- C  9     36.56    0.33   0.098
   31. BD ( 2) C  5- C 10     166. RY ( 2) C  4            0.87    0.80   0.024
   31. BD ( 2) C  5- C 10     219. RY ( 3) C  6            1.67    0.79   0.032
   31. BD ( 2) C  5- C 10     297. RY ( 3) C  9            1.31    0.85   0.030
   32. BD ( 1) C  6- C  7      61. BD*( 1) C  4- C  5      3.21    1.22   0.056
   32. BD ( 1) C  6- C  7      63. BD*( 1) C  5- C  6      1.20    1.24   0.035
   32. BD ( 1) C  6- C  7      68. BD*( 1) C  6- H 18      0.52    1.15   0.022
   32. BD ( 1) C  6- C  7      69. BD*( 1) C  7- C  8      1.09    1.25   0.033
   32. BD ( 1) C  6- C  7      73. BD*( 1) C  8- H 20      2.58    1.13   0.048
   32. BD ( 1) C  6- C  7     191. RY ( 1) C  5            2.00    2.05   0.057
   32. BD ( 1) C  6- C  7     269. RY ( 1) C  8            0.95    2.25   0.041
   32. BD ( 1) C  6- C  7     271. RY ( 3) C  8            0.63    2.02   0.032
   33. BD ( 2) C  6- C  7      65. BD*( 2) C  5- C 10     26.61    0.35   0.086
   33. BD ( 2) C  6- C  7      72. BD*( 2) C  8- C  9     23.79    0.34   0.081
   33. BD ( 2) C  6- C  7     193. RY ( 3) C  5            0.82    1.18   0.028
   33. BD ( 2) C  6- C  7     270. RY ( 2) C  8            1.70    0.79   0.033
   34. BD ( 1) C  6- H 18      64. BD*( 1) C  5- C 10      5.01    1.11   0.067
   34. BD ( 1) C  6- H 18      69. BD*( 1) C  7- C  8      4.63    1.13   0.064
   34. BD ( 1) C  6- H 18      70. BD*( 1) C  7- H 19      0.80    1.01   0.025
   34. BD ( 1) C  6- H 18     191. RY ( 1) C  5            1.86    1.92   0.053
   34. BD ( 1) C  6- H 18     243. RY ( 1) C  7            1.47    2.08   0.049
   35. BD ( 1) C  7- C  8      66. BD*( 1) C  6- C  7      1.08    1.28   0.033
   35. BD ( 1) C  7- C  8      68. BD*( 1) C  6- H 18      2.72    1.14   0.050
   35. BD ( 1) C  7- C  8      71. BD*( 1) C  8- C  9      1.00    1.25   0.032
   35. BD ( 1) C  7- C  8      75. BD*( 1) C  9- H 21      2.82    1.13   0.050
   35. BD ( 1) C  7- C  8     217. RY ( 1) C  6            1.13    2.20   0.044
   35. BD ( 1) C  7- C  8     218. RY ( 2) C  6            0.78    1.91   0.034
   35. BD ( 1) C  7- C  8     295. RY ( 1) C  9            1.18    2.19   0.045
   36. BD ( 1) C  7- H 19      63. BD*( 1) C  5- C  6      4.86    1.12   0.066
   36. BD ( 1) C  7- H 19      68. BD*( 1) C  6- H 18      0.71    1.03   0.024
   36. BD ( 1) C  7- H 19      71. BD*( 1) C  8- C  9      4.17    1.14   0.062
   36. BD ( 1) C  7- H 19      73. BD*( 1) C  8- H 20      0.67    1.02   0.023
   36. BD ( 1) C  7- H 19     217. RY ( 1) C  6            1.70    2.09   0.053
   36. BD ( 1) C  7- H 19     269. RY ( 1) C  8            1.67    2.13   0.053
   37. BD ( 1) C  8- C  9      69. BD*( 1) C  7- C  8      1.00    1.25   0.032
   37. BD ( 1) C  8- C  9      70. BD*( 1) C  7- H 19      2.73    1.13   0.050
   37. BD ( 1) C  8- C  9      74. BD*( 1) C  9- C 10      1.07    1.27   0.033
   37. BD ( 1) C  8- C  9      76. BD*( 1) C 10- H 22      2.71    1.13   0.049
   37. BD ( 1) C  8- C  9     243. RY ( 1) C  7            1.21    2.20   0.046
   37. BD ( 1) C  8- C  9     321. RY ( 1) C 10            1.12    2.20   0.044
   37. BD ( 1) C  8- C  9     323. RY ( 3) C 10            0.73    1.97   0.034
   38. BD ( 2) C  8- C  9      65. BD*( 2) C  5- C 10     24.25    0.35   0.082
   38. BD ( 2) C  8- C  9      67. BD*( 2) C  6- C  7     29.95    0.36   0.092
   38. BD ( 2) C  8- C  9     245. RY ( 3) C  7            1.82    0.86   0.035
   38. BD ( 2) C  8- C  9     322. RY ( 2) C 10            1.62    0.81   0.032
   39. BD ( 1) C  8- H 20      66. BD*( 1) C  6- C  7      4.18    1.17   0.062
   39. BD ( 1) C  8- H 20      70. BD*( 1) C  7- H 19      0.63    1.02   0.023
   39. BD ( 1) C  8- H 20      74. BD*( 1) C  9- C 10      4.24    1.15   0.062
   39. BD ( 1) C  8- H 20      75. BD*( 1) C  9- H 21      0.64    1.02   0.023
   39. BD ( 1) C  8- H 20     243. RY ( 1) C  7            1.57    2.09   0.051
   39. BD ( 1) C  8- H 20     295. RY ( 1) C  9            1.59    2.08   0.051
   40. BD ( 1) C  9- C 10      61. BD*( 1) C  4- C  5      3.12    1.22   0.055
   40. BD ( 1) C  9- C 10      64. BD*( 1) C  5- C 10      1.18    1.24   0.034
   40. BD ( 1) C  9- C 10      71. BD*( 1) C  8- C  9      1.09    1.26   0.033
   40. BD ( 1) C  9- C 10      73. BD*( 1) C  8- H 20      2.64    1.13   0.049
   40. BD ( 1) C  9- C 10     191. RY ( 1) C  5            1.07    2.05   0.042
   40. BD ( 1) C  9- C 10     192. RY ( 2) C  5            1.10    2.05   0.042
   40. BD ( 1) C  9- C 10     269. RY ( 1) C  8            0.99    2.25   0.042
   40. BD ( 1) C  9- C 10     271. RY ( 3) C  8            0.63    2.02   0.032
   41. BD ( 1) C  9- H 21      64. BD*( 1) C  5- C 10      4.77    1.13   0.065
   41. BD ( 1) C  9- H 21      69. BD*( 1) C  7- C  8      4.18    1.14   0.062
   41. BD ( 1) C  9- H 21      73. BD*( 1) C  8- H 20      0.68    1.02   0.023
   41. BD ( 1) C  9- H 21      76. BD*( 1) C 10- H 22      0.75    1.02   0.025
   41. BD ( 1) C  9- H 21     269. RY ( 1) C  8            1.68    2.13   0.053
   41. BD ( 1) C  9- H 21     321. RY ( 1) C 10            1.65    2.09   0.052
   42. BD ( 1) C 10- H 22      63. BD*( 1) C  5- C  6      5.11    1.12   0.067
   42. BD ( 1) C 10- H 22      71. BD*( 1) C  8- C  9      4.55    1.14   0.064
   42. BD ( 1) C 10- H 22      75. BD*( 1) C  9- H 21      0.76    1.01   0.025
   42. BD ( 1) C 10- H 22     191. RY ( 1) C  5            1.32    1.93   0.045
   42. BD ( 1) C 10- H 22     192. RY ( 2) C  5            0.62    1.92   0.031
   42. BD ( 1) C 10- H 22     295. RY ( 1) C  9            1.49    2.08   0.050
   43. BD ( 1) N 11- C 12      53. BD*( 1) C  1- C  2      3.22    1.35   0.059
   43. BD ( 1) N 11- C 12      78. BD*( 1) C 12- C 13      0.81    1.38   0.030
   43. BD ( 1) N 11- C 12      82. BD*( 1) C 13- H 24      1.67    1.26   0.041
   43. BD ( 1) N 11- C 12      88. RY ( 2) C  1            2.87    2.14   0.070
   44. BD ( 1) C 12- C 13      77. BD*( 1) N 11- C 12      0.52    1.29   0.023
   44. BD ( 1) C 12- C 13      81. BD*( 1) C 13- C 14      0.85    1.25   0.029
   44. BD ( 1) C 12- C 13      82. BD*( 1) C 13- H 24      0.51    1.14   0.022
   44. BD ( 1) C 12- C 13      85. BD*( 1) C 14- H 25      2.96    1.14   0.052
   44. BD ( 1) C 12- C 13     347. RY ( 1) N 11            1.12    1.59   0.038
   44. BD ( 1) C 12- C 13     349. RY ( 3) N 11            0.62    2.00   0.031
   44. BD ( 1) C 12- C 13     425. RY ( 1) C 14            1.26    2.21   0.047
   45. BD ( 2) C 12- C 13      55. BD*( 2) C  1- N 11     19.48    0.33   0.072
   45. BD ( 2) C 12- C 13      79. BD*( 2) C 12- C 13      1.18    0.35   0.018
   45. BD ( 2) C 12- C 13      84. BD*( 2) C 14- C 15     32.63    0.36   0.097
   45. BD ( 2) C 12- C 13     348. RY ( 2) N 11            1.42    0.98   0.033
   45. BD ( 2) C 12- C 13     427. RY ( 3) C 14            1.56    1.42   0.042
   46. BD ( 1) C 12- H 23      54. BD*( 1) C  1- N 11      5.83    1.12   0.072
   46. BD ( 1) C 12- H 23      81. BD*( 1) C 13- C 14      4.08    1.13   0.061
   46. BD ( 1) C 12- H 23      82. BD*( 1) C 13- H 24      0.61    1.02   0.022
   46. BD ( 1) C 12- H 23     347. RY ( 1) N 11            1.13    1.47   0.036
   46. BD ( 1) C 12- H 23     399. RY ( 1) C 13            1.41    2.09   0.048
   47. BD ( 1) C 13- C 14      78. BD*( 1) C 12- C 13      0.85    1.25   0.029
   47. BD ( 1) C 13- C 14      80. BD*( 1) C 12- H 23      2.68    1.10   0.049
   47. BD ( 1) C 13- C 14      82. BD*( 1) C 13- H 24      0.51    1.13   0.021
   47. BD ( 1) C 13- C 14      83. BD*( 1) C 14- C 15      1.11    1.29   0.034
   47. BD ( 1) C 13- C 14      86. BD*( 1) C 15- H 26      3.04    1.14   0.053
   47. BD ( 1) C 13- C 14     373. RY ( 1) C 12            1.01    1.99   0.040
   47. BD ( 1) C 13- C 14     451. RY ( 1) C 15            1.33    2.20   0.048
   48. BD ( 1) C 13- H 24      77. BD*( 1) N 11- C 12      4.50    1.17   0.065
   48. BD ( 1) C 13- H 24      80. BD*( 1) C 12- H 23      0.58    0.99   0.021
   48. BD ( 1) C 13- H 24      83. BD*( 1) C 14- C 15      3.67    1.18   0.059
   48. BD ( 1) C 13- H 24      85. BD*( 1) C 14- H 25      0.52    1.02   0.020
   48. BD ( 1) C 13- H 24     374. RY ( 2) C 12            1.23    1.90   0.043
   48. BD ( 1) C 13- H 24     425. RY ( 1) C 14            1.33    2.09   0.047
   49. BD ( 1) C 14- C 15      53. BD*( 1) C  1- C  2      2.83    1.24   0.053
   49. BD ( 1) C 14- C 15      56. BD*( 1) C  1- C 15      1.08    1.23   0.032
   49. BD ( 1) C 14- C 15      81. BD*( 1) C 13- C 14      1.14    1.25   0.034
   49. BD ( 1) C 14- C 15      82. BD*( 1) C 13- H 24      2.75    1.14   0.050
   49. BD ( 1) C 14- C 15      86. BD*( 1) C 15- H 26      0.65    1.16   0.024
   49. BD ( 1) C 14- C 15      87. RY ( 1) C  1            1.57    1.98   0.050
   49. BD ( 1) C 14- C 15     399. RY ( 1) C 13            1.15    2.21   0.045
   50. BD ( 2) C 14- C 15      55. BD*( 2) C  1- N 11     32.95    0.34   0.094
   50. BD ( 2) C 14- C 15      79. BD*( 2) C 12- C 13     18.57    0.35   0.072
   50. BD ( 2) C 14- C 15     400. RY ( 2) C 13            2.05    0.80   0.036
   51. BD ( 1) C 14- H 25      56. BD*( 1) C  1- C 15      4.57    1.11   0.063
   51. BD ( 1) C 14- H 25      78. BD*( 1) C 12- C 13      3.65    1.14   0.058
   51. BD ( 1) C 14- H 25      82. BD*( 1) C 13- H 24      0.57    1.02   0.021
   51. BD ( 1) C 14- H 25      86. BD*( 1) C 15- H 26      0.65    1.03   0.023
   51. BD ( 1) C 14- H 25     399. RY ( 1) C 13            1.59    2.09   0.052
   51. BD ( 1) C 14- H 25     451. RY ( 1) C 15            1.83    2.09   0.055
   51. BD ( 1) C 14- H 25     456. RY ( 6) C 15            0.61    3.84   0.043
   52. BD ( 1) C 15- H 26      54. BD*( 1) C  1- N 11      5.13    1.11   0.067
   52. BD ( 1) C 15- H 26      81. BD*( 1) C 13- C 14      4.39    1.12   0.063
   52. BD ( 1) C 15- H 26      85. BD*( 1) C 14- H 25      0.72    1.01   0.024
   52. BD ( 1) C 15- H 26      87. RY ( 1) C  1            0.54    1.85   0.028
   52. BD ( 1) C 15- H 26      88. RY ( 2) C  1            0.87    1.89   0.036
   52. BD ( 1) C 15- H 26     425. RY ( 1) C 14            1.32    2.08   0.047


 NATURAL BOND ORBITALS (Summary):

                                                     Principal Delocalizations
           NBO                 Occupancy    Energy   (geminal,vicinal,remote)
 ===============================================================================
 Molecular unit  1  (C13H11N2)
 ------ Lewis --------------------------------------
    1. CR ( 1) C  1             1.99999   -10.54401
    2. CR ( 1) C  2             1.99999   -10.49886
    3. CR ( 1) N  3             1.99999   -14.71125
    4. CR ( 1) C  4             1.99999   -10.50874
    5. CR ( 1) C  5             1.99999   -10.52196
    6. CR ( 1) C  6             1.99999   -10.50908
    7. CR ( 1) C  7             1.99999   -10.51981
    8. CR ( 1) C  8             1.99999   -10.51270
    9. CR ( 1) C  9             1.99999   -10.52061
   10. CR ( 1) C 10             1.99999   -10.51274
   11. CR ( 1) N 11             1.99999   -14.70623
   12. CR ( 1) C 12             1.99999   -10.54515
   13. CR ( 1) C 13             1.99999   -10.50799
   14. CR ( 1) C 14             1.99999   -10.52706
   15. CR ( 1) C 15             1.99999   -10.50783
   16. LP ( 1) C  2             1.20191    -0.09144  60(v),55(v),114(g),142(v)
                                                     141(v),91(v),478(v),65(r)
                                                     89(v)
   17. LP ( 1) N  3             1.88778    -0.32444  62(v),58(v),53(v),165(v)
                                                     61(v),113(v),83(r),64(r)
   18. LP ( 1) N 11             1.91638    -0.34151  56(v),78(v),80(v),373(v)
                                                     87(v),53(v),381(v)
   19. BD ( 1) C  1- C  2       1.98161    -0.61281  59(v),77(v),83(v),57(g)
                                                     347(v),451(v),139(v),56(g)
                                                     54(g)
   20. BD ( 1) C  1- N 11       1.98433    -0.73745  80(v),374(v),86(v),57(v)
                                                     115(v),56(g)
   21. BD ( 2) C  1- N 11       1.68044    -0.30486  79(v),84(v),375(v),114(v)
                                                     453(v)
   22. BD ( 1) C  1- C 15       1.98173    -0.62187  85(v),58(v),115(v),425(v)
                                                     347(v),426(v),83(g),53(g)
   23. BD ( 1) C  2- N  3       1.98637    -0.75335  61(v),54(v),167(v),53(g)
                                                     59(g),168(v),87(v),88(v)
   24. BD ( 1) C  2- H 16       1.98462    -0.50242  56(v),139(v),90(v),87(v)
                                                     140(v)
   25. BD ( 1) N  3- C  4       1.98741    -0.76243  53(v),64(v),115(v),192(v)
                                                     61(g),116(v),57(g)
   26. BD ( 2) N  3- C  4       1.85296    -0.31587  65(v),60(g),114(v),194(v)
   27. BD ( 1) C  4- C  5       1.98020    -0.60866  57(v),74(v),66(v),321(v)
                                                     217(v),59(g),139(v),63(g)
                                                     64(g)
   28. BD ( 1) C  4- H 17       1.98414    -0.50719  63(v),139(v),192(v),191(v)
   29. BD ( 1) C  5- C  6       1.97640    -0.61863  76(v),70(v),62(v),167(v)
                                                     66(g),321(v),243(v),64(g)
                                                     61(g),244(v)
   30. BD ( 1) C  5- C 10       1.97923    -0.62397  68(v),75(v),59(v),167(v)
                                                     217(v),74(g),63(g),295(v)
                                                     296(v),61(g)
   31. BD ( 2) C  5- C 10       1.60992    -0.25423  72(v),67(v),60(v),219(v)
                                                     297(v),166(v)
   32. BD ( 1) C  6- C  7       1.98434    -0.64272  61(v),73(v),191(v),63(g)
                                                     69(g),269(v),271(v),68(g)
   33. BD ( 2) C  6- C  7       1.72446    -0.27185  65(v),72(v),270(v),193(v)
   34. BD ( 1) C  6- H 18       1.97894    -0.51331  64(v),69(v),191(v),243(v)
                                                     70(v)
   35. BD ( 1) C  7- C  8       1.98365    -0.63629  75(v),68(v),295(v),217(v)
                                                     66(g),71(g),218(v)
   36. BD ( 1) C  7- H 19       1.97989    -0.52353  63(v),71(v),217(v),269(v)
                                                     68(v),73(v)
   37. BD ( 1) C  8- C  9       1.98361    -0.63853  70(v),76(v),243(v),321(v)
                                                     74(g),69(g),323(v)
   38. BD ( 2) C  8- C  9       1.69474    -0.26996  67(v),65(v),245(v),322(v)
   39. BD ( 1) C  8- H 20       1.98101    -0.52497  74(v),66(v),295(v),243(v)
                                                     75(v),70(v)
   40. BD ( 1) C  9- C 10       1.98443    -0.64295  61(v),73(v),64(g),192(v)
                                                     71(g),191(v),269(v),271(v)
   41. BD ( 1) C  9- H 21       1.97984    -0.52506  64(v),69(v),269(v),321(v)
                                                     76(v),73(v)
   42. BD ( 1) C 10- H 22       1.97929    -0.51943  63(v),71(v),295(v),191(v)
                                                     75(v),192(v)
   43. BD ( 1) N 11- C 12       1.98876    -0.76685  53(v),88(v),82(v),78(g)
   44. BD ( 1) C 12- C 13       1.98821    -0.64794  85(v),425(v),347(v),81(g)
                                                     349(v),77(g),82(g)
   45. BD ( 2) C 12- C 13       1.70377    -0.27285  84(v),55(v),427(v),348(v)
                                                     79(g)
   46. BD ( 1) C 12- H 23       1.98033    -0.52630  54(v),81(v),399(v),347(v)
                                                     82(v)
   47. BD ( 1) C 13- C 14       1.98325    -0.63694  86(v),80(v),451(v),83(g)
                                                     373(v),78(g),82(g)
   48. BD ( 1) C 13- H 24       1.98125    -0.52799  77(v),83(v),425(v),374(v)
                                                     80(v),85(v)
   49. BD ( 1) C 14- C 15       1.98476    -0.65075  53(v),82(v),87(v),399(v)
                                                     81(g),56(g),86(g)
   50. BD ( 2) C 14- C 15       1.74999    -0.27882  55(v),79(v),400(v)
   51. BD ( 1) C 14- H 25       1.98117    -0.53021  56(v),78(v),451(v),399(v)
                                                     86(v),456(v),82(v)
   52. BD ( 1) C 15- H 26       1.97888    -0.51776  54(v),81(v),425(v),88(v)
                                                     85(v),87(v)
 ------ non-Lewis ----------------------------------
   53. BD*( 1) C  1- C  2       0.02575     0.58713
   54. BD*( 1) C  1- N 11       0.02100     0.58942
   55. BD*( 2) C  1- N 11       0.51358     0.05986
   56. BD*( 1) C  1- C 15       0.03922     0.57521
   57. BD*( 1) C  2- N  3       0.00999     0.66142
   58. BD*( 1) C  2- H 16       0.04157     0.46408
   59. BD*( 1) N  3- C  4       0.00947     0.67300
   60. BD*( 2) N  3- C  4       0.45884     0.07303
   61. BD*( 1) C  4- C  5       0.02298     0.57998
   62. BD*( 1) C  4- H 17       0.04317     0.45483
   63. BD*( 1) C  5- C  6       0.02473     0.59812
   64. BD*( 1) C  5- C 10       0.01998     0.60051
   65. BD*( 2) C  5- C 10       0.42781     0.07839
   66. BD*( 1) C  6- C  7       0.01239     0.64058
   67. BD*( 2) C  6- C  7       0.31806     0.08508
   68. BD*( 1) C  6- H 18       0.01499     0.50397
   69. BD*( 1) C  7- C  8       0.01498     0.61204
   70. BD*( 1) C  7- H 19       0.01372     0.49222
   71. BD*( 1) C  8- C  9       0.01461     0.61624
   72. BD*( 2) C  8- C  9       0.39092     0.07254
   73. BD*( 1) C  8- H 20       0.01282     0.49172
   74. BD*( 1) C  9- C 10       0.01209     0.62945
   75. BD*( 1) C  9- H 21       0.01340     0.49080
   76. BD*( 1) C 10- H 22       0.01445     0.49072
   77. BD*( 1) N 11- C 12       0.01209     0.63932
   78. BD*( 1) C 12- C 13       0.02851     0.61079
   79. BD*( 2) C 12- C 13       0.35638     0.07255
   80. BD*( 1) C 12- H 23       0.02616     0.46620
   81. BD*( 1) C 13- C 14       0.01481     0.60343
   82. BD*( 1) C 13- H 24       0.01212     0.49267
   83. BD*( 1) C 14- C 15       0.01195     0.64968
   84. BD*( 2) C 14- C 15       0.27174     0.08692
   85. BD*( 1) C 14- H 25       0.01445     0.49086
   86. BD*( 1) C 15- H 26       0.01470     0.50475
   87. RY ( 1) C  1             0.00827     1.32874
   88. RY ( 2) C  1             0.00512     1.37449
   89. RY ( 3) C  1             0.00371     1.07535
   90. RY ( 4) C  1             0.00144     2.19195
   91. RY ( 5) C  1             0.00058     1.85066
   92. RY ( 6) C  1             0.00043     2.90906
   93. RY ( 7) C  1             0.00030     3.10289
   94. RY ( 8) C  1             0.00022     3.06312
   95. RY ( 9) C  1             0.00012     3.07338
   96. RY (10) C  1             0.00007     2.55618
   97. RY (11) C  1             0.00005     3.05065
   98. RY (12) C  1             0.00003     3.26224
   99. RY (13) C  1             0.00002     3.19234
  100. RY (14) C  1             0.00001     3.14884
  101. RY (15) C  1             0.00001     3.24336
  102. RY (16) C  1             0.00000     3.00694
  103. RY (17) C  1             0.00000     2.81337
  104. RY (18) C  1             0.00000    12.37963
  105. RY (19) C  1             0.00000     2.14048
  106. RY (20) C  1             0.00000     8.42192
  107. RY (21) C  1             0.00000     4.19398
  108. RY (22) C  1             0.00000     1.70518
  109. RY (23) C  1             0.00000     5.64509
  110. RY (24) C  1             0.00000     3.54300
  111. RY (25) C  1             0.00000     3.87825
  112. RY (26) C  1             0.00000     3.34359
  113. RY ( 1) C  2             0.00626     1.46528
  114. RY ( 2) C  2             0.00507     0.54530
  115. RY ( 3) C  2             0.00358     1.49686
  116. RY ( 4) C  2             0.00132     1.37336
  117. RY ( 5) C  2             0.00041     2.52329
  118. RY ( 6) C  2             0.00019     2.73888
  119. RY ( 7) C  2             0.00015     2.83154
  120. RY ( 8) C  2             0.00010     3.03417
  121. RY ( 9) C  2             0.00006     1.51465
  122. RY (10) C  2             0.00004     3.78409
  123. RY (11) C  2             0.00002     3.03985
  124. RY (12) C  2             0.00002     2.32482
  125. RY (13) C  2             0.00002     2.49552
  126. RY (14) C  2             0.00001     2.68564
  127. RY (15) C  2             0.00001     3.40031
  128. RY (16) C  2             0.00000     4.04026
  129. RY (17) C  2             0.00000     2.91163
  130. RY (18) C  2             0.00000     6.54782
  131. RY (19) C  2             0.00000     2.22486
  132. RY (20) C  2             0.00000     7.74799
  133. RY (21) C  2             0.00000     7.96530
  134. RY (22) C  2             0.00000     3.13699
  135. RY (23) C  2             0.00000     6.10531
  136. RY (24) C  2             0.00000     3.85572
  137. RY (25) C  2             0.00000     3.12902
  138. RY (26) C  2             0.00000     3.39029
  139. RY ( 1) N  3             0.00611     0.96701
  140. RY ( 2) N  3             0.00155     1.41579
  141. RY ( 3) N  3             0.00106     2.58359
  142. RY ( 4) N  3             0.00054     0.74148
  143. RY ( 5) N  3             0.00047     1.29613
  144. RY ( 6) N  3             0.00018     2.65625
  145. RY ( 7) N  3             0.00009     2.80547
  146. RY ( 8) N  3             0.00007     4.37112
  147. RY ( 9) N  3             0.00002     3.61090
  148. RY (10) N  3             0.00001     5.38216
  149. RY (11) N  3             0.00001     1.50660
  150. RY (12) N  3             0.00001     3.83418
  151. RY (13) N  3             0.00001     3.38095
  152. RY (14) N  3             0.00001     3.93427
  153. RY (15) N  3             0.00000     3.15227
  154. RY (16) N  3             0.00000     4.28827
  155. RY (17) N  3             0.00000     4.33923
  156. RY (18) N  3             0.00000    17.60978
  157. RY (19) N  3             0.00000     4.30951
  158. RY (20) N  3             0.00000     4.50899
  159. RY (21) N  3             0.00000     3.42597
  160. RY (22) N  3             0.00000     4.10456
  161. RY (23) N  3             0.00000    13.78175
  162. RY (24) N  3             0.00000     4.71138
  163. RY (25) N  3             0.00000     6.72385
  164. RY (26) N  3             0.00000     4.20577
  165. RY ( 1) C  4             0.00623     1.44886
  166. RY ( 2) C  4             0.00500     0.54971
  167. RY ( 3) C  4             0.00379     1.56450
  168. RY ( 4) C  4             0.00100     1.50264
  169. RY ( 5) C  4             0.00053     2.39544
  170. RY ( 6) C  4             0.00021     3.18712
  171. RY ( 7) C  4             0.00010     2.47432
  172. RY ( 8) C  4             0.00008     2.51228
  173. RY ( 9) C  4             0.00005     1.66506
  174. RY (10) C  4             0.00005     3.13743
  175. RY (11) C  4             0.00004     3.48052
  176. RY (12) C  4             0.00002     2.82023
  177. RY (13) C  4             0.00001     2.98462
  178. RY (14) C  4             0.00001     2.38943
  179. RY (15) C  4             0.00001     2.74443
  180. RY (16) C  4             0.00000     3.40103
  181. RY (17) C  4             0.00000     3.13751
  182. RY (18) C  4             0.00000     2.96291
  183. RY (19) C  4             0.00000     2.26504
  184. RY (20) C  4             0.00000     3.58657
  185. RY (21) C  4             0.00000    12.90526
  186. RY (22) C  4             0.00000     3.35986
  187. RY (23) C  4             0.00000     3.72905
  188. RY (24) C  4             0.00000     4.35285
  189. RY (25) C  4             0.00000     2.99336
  190. RY (26) C  4             0.00000     8.92625
  191. RY ( 1) C  5             0.00719     1.40940
  192. RY ( 2) C  5             0.00345     1.40482
  193. RY ( 3) C  5             0.00195     0.90316
  194. RY ( 4) C  5             0.00057     2.10036
  195. RY ( 5) C  5             0.00054     1.71914
  196. RY ( 6) C  5             0.00036     3.77924
  197. RY ( 7) C  5             0.00031     3.26503
  198. RY ( 8) C  5             0.00023     3.49678
  199. RY ( 9) C  5             0.00010     3.03514
  200. RY (10) C  5             0.00005     3.61718
  201. RY (11) C  5             0.00004     2.60195
  202. RY (12) C  5             0.00002     2.72489
  203. RY (13) C  5             0.00001     3.46441
  204. RY (14) C  5             0.00001     2.95822
  205. RY (15) C  5             0.00001     3.39465
  206. RY (16) C  5             0.00000     3.14878
  207. RY (17) C  5             0.00000     2.54633
  208. RY (18) C  5             0.00000    14.66497
  209. RY (19) C  5             0.00000     2.23321
  210. RY (20) C  5             0.00000     6.99986
  211. RY (21) C  5             0.00000     4.83166
  212. RY (22) C  5             0.00000     1.74228
  213. RY (23) C  5             0.00000     4.28953
  214. RY (24) C  5             0.00000     3.63671
  215. RY (25) C  5             0.00000     2.22620
  216. RY (26) C  5             0.00000     3.21198
  217. RY ( 1) C  6             0.00477     1.56336
  218. RY ( 2) C  6             0.00183     1.27105
  219. RY ( 3) C  6             0.00167     0.53392
  220. RY ( 4) C  6             0.00064     1.87689
  221. RY ( 5) C  6             0.00033     3.58082
  222. RY ( 6) C  6             0.00027     2.60194
  223. RY ( 7) C  6             0.00025     2.04086
  224. RY ( 8) C  6             0.00017     2.32914
  225. RY ( 9) C  6             0.00006     2.95051
  226. RY (10) C  6             0.00004     3.09676
  227. RY (11) C  6             0.00001     2.29051
  228. RY (12) C  6             0.00002     3.39219
  229. RY (13) C  6             0.00001     2.96195
  230. RY (14) C  6             0.00001     3.27285
  231. RY (15) C  6             0.00000     4.15645
  232. RY (16) C  6             0.00000     1.49564
  233. RY (17) C  6             0.00000     3.03661
  234. RY (18) C  6             0.00000     3.39952
  235. RY (19) C  6             0.00000     3.42525
  236. RY (20) C  6             0.00000     3.33394
  237. RY (21) C  6             0.00000     4.51698
  238. RY (22) C  6             0.00000     1.62740
  239. RY (23) C  6             0.00000     8.73336
  240. RY (24) C  6             0.00000    10.22477
  241. RY (25) C  6             0.00000     3.59351
  242. RY (26) C  6             0.00000     4.32478
  243. RY ( 1) C  7             0.00468     1.56297
  244. RY ( 2) C  7             0.00148     1.29922
  245. RY ( 3) C  7             0.00104     0.59296
  246. RY ( 4) C  7             0.00051     1.63525
  247. RY ( 5) C  7             0.00049     2.66655
  248. RY ( 6) C  7             0.00033     3.74469
  249. RY ( 7) C  7             0.00008     2.56905
  250. RY ( 8) C  7             0.00005     1.75839
  251. RY ( 9) C  7             0.00002     2.74066
  252. RY (10) C  7             0.00001     3.43627
  253. RY (11) C  7             0.00001     3.40801
  254. RY (12) C  7             0.00001     3.12960
  255. RY (13) C  7             0.00000     4.26910
  256. RY (14) C  7             0.00000     3.05169
  257. RY (15) C  7             0.00000     3.25625
  258. RY (16) C  7             0.00000     2.50407
  259. RY (17) C  7             0.00000     2.62961
  260. RY (18) C  7             0.00000     3.16104
  261. RY (19) C  7             0.00000     2.61443
  262. RY (20) C  7             0.00000     6.88185
  263. RY (21) C  7             0.00000     2.95083
  264. RY (22) C  7             0.00000     7.08446
  265. RY (23) C  7             0.00000    10.74851
  266. RY (24) C  7             0.00000     3.34231
  267. RY (25) C  7             0.00000     3.24830
  268. RY (26) C  7             0.00000     1.70307
  269. RY ( 1) C  8             0.00465     1.60477
  270. RY ( 2) C  8             0.00286     0.51729
  271. RY ( 3) C  8             0.00132     1.38174
  272. RY ( 4) C  8             0.00045     1.33847
  273. RY ( 5) C  8             0.00033     3.77680
  274. RY ( 6) C  8             0.00028     3.19337
  275. RY ( 7) C  8             0.00009     2.61449
  276. RY ( 8) C  8             0.00003     1.59096
  277. RY ( 9) C  8             0.00001     2.94957
  278. RY (10) C  8             0.00001     3.66031
  279. RY (11) C  8             0.00001     1.40411
  280. RY (12) C  8             0.00000     2.38167
  281. RY (13) C  8             0.00000     3.02264
  282. RY (14) C  8             0.00000     4.17652
  283. RY (15) C  8             0.00000     4.10854
  284. RY (16) C  8             0.00000     4.38772
  285. RY (17) C  8             0.00000     3.60194
  286. RY (18) C  8             0.00000     3.34339
  287. RY (19) C  8             0.00000     3.07729
  288. RY (20) C  8             0.00000     3.26983
  289. RY (21) C  8             0.00000     3.21503
  290. RY (22) C  8             0.00000     1.69760
  291. RY (23) C  8             0.00000     4.97405
  292. RY (24) C  8             0.00000     3.67154
  293. RY (25) C  8             0.00000    15.11041
  294. RY (26) C  8             0.00000     1.68206
  295. RY ( 1) C  9             0.00469     1.55833
  296. RY ( 2) C  9             0.00147     1.30644
  297. RY ( 3) C  9             0.00115     0.59625
  298. RY ( 4) C  9             0.00050     1.56010
  299. RY ( 5) C  9             0.00049     2.71019
  300. RY ( 6) C  9             0.00033     3.77456
  301. RY ( 7) C  9             0.00009     2.60398
  302. RY ( 8) C  9             0.00007     1.67124
  303. RY ( 9) C  9             0.00002     2.38694
  304. RY (10) C  9             0.00001     3.39368
  305. RY (11) C  9             0.00001     3.45438
  306. RY (12) C  9             0.00001     3.15581
  307. RY (13) C  9             0.00000     3.00315
  308. RY (14) C  9             0.00000     3.71517
  309. RY (15) C  9             0.00000     3.55763
  310. RY (16) C  9             0.00000     3.26072
  311. RY (17) C  9             0.00000     3.23809
  312. RY (18) C  9             0.00000     3.38466
  313. RY (19) C  9             0.00000     3.24945
  314. RY (20) C  9             0.00000     2.32744
  315. RY (21) C  9             0.00000     5.68307
  316. RY (22) C  9             0.00000     2.45931
  317. RY (23) C  9             0.00000     9.81183
  318. RY (24) C  9             0.00000     7.53848
  319. RY (25) C  9             0.00000     4.35598
  320. RY (26) C  9             0.00000     1.74735
  321. RY ( 1) C 10             0.00486     1.56141
  322. RY ( 2) C 10             0.00159     0.53537
  323. RY ( 3) C 10             0.00145     1.33312
  324. RY ( 4) C 10             0.00058     2.01826
  325. RY ( 5) C 10             0.00032     2.66721
  326. RY ( 6) C 10             0.00031     3.59023
  327. RY ( 7) C 10             0.00024     1.80991
  328. RY ( 8) C 10             0.00009     2.30410
  329. RY ( 9) C 10             0.00004     2.95793
  330. RY (10) C 10             0.00003     2.23788
  331. RY (11) C 10             0.00001     2.90604
  332. RY (12) C 10             0.00001     2.86836
  333. RY (13) C 10             0.00001     3.48728
  334. RY (14) C 10             0.00001     3.99451
  335. RY (15) C 10             0.00000     4.56266
  336. RY (16) C 10             0.00000     3.17755
  337. RY (17) C 10             0.00000     3.37977
  338. RY (18) C 10             0.00000     3.33409
  339. RY (19) C 10             0.00000     2.60396
  340. RY (20) C 10             0.00000     3.49506
  341. RY (21) C 10             0.00000     1.72208
  342. RY (22) C 10             0.00000    16.68822
  343. RY (23) C 10             0.00000     3.59042
  344. RY (24) C 10             0.00000     3.46872
  345. RY (25) C 10             0.00000     2.22263
  346. RY (26) C 10             0.00000     3.25635
  347. RY ( 1) N 11             0.00552     0.94455
  348. RY ( 2) N 11             0.00167     0.71032
  349. RY ( 3) N 11             0.00109     1.34982
  350. RY ( 4) N 11             0.00042     1.70656
  351. RY ( 5) N 11             0.00023     3.38709
  352. RY ( 6) N 11             0.00016     2.06800
  353. RY ( 7) N 11             0.00016     3.14767
  354. RY ( 8) N 11             0.00008     3.91473
  355. RY ( 9) N 11             0.00005     2.75533
  356. RY (10) N 11             0.00002     2.56710
  357. RY (11) N 11             0.00001     4.30549
  358. RY (12) N 11             0.00001     3.95521
  359. RY (13) N 11             0.00000     4.12920
  360. RY (14) N 11             0.00000     3.72283
  361. RY (15) N 11             0.00000     3.98380
  362. RY (16) N 11             0.00000     4.60844
  363. RY (17) N 11             0.00000     4.51718
  364. RY (18) N 11             0.00000     4.10974
  365. RY (19) N 11             0.00000     3.91233
  366. RY (20) N 11             0.00000    21.84035
  367. RY (21) N 11             0.00000     9.82288
  368. RY (22) N 11             0.00000     3.04653
  369. RY (23) N 11             0.00000     4.56498
  370. RY (24) N 11             0.00000     5.45972
  371. RY (25) N 11             0.00000     2.84528
  372. RY (26) N 11             0.00000     5.37712
  373. RY ( 1) C 12             0.00682     1.35639
  374. RY ( 2) C 12             0.00453     1.37586
  375. RY ( 3) C 12             0.00188     1.18175
  376. RY ( 4) C 12             0.00072     1.78723
  377. RY ( 5) C 12             0.00050     1.98726
  378. RY ( 6) C 12             0.00034     2.39881
  379. RY ( 7) C 12             0.00010     1.71661
  380. RY ( 8) C 12             0.00007     3.66834
  381. RY ( 9) C 12             0.00004     2.93449
  382. RY (10) C 12             0.00002     1.92279
  383. RY (11) C 12             0.00001     3.76690
  384. RY (12) C 12             0.00001     3.67297
  385. RY (13) C 12             0.00000     3.81126
  386. RY (14) C 12             0.00000     2.59930
  387. RY (15) C 12             0.00000     3.90326
  388. RY (16) C 12             0.00000     3.35306
  389. RY (17) C 12             0.00000     3.13371
  390. RY (18) C 12             0.00000     3.34510
  391. RY (19) C 12             0.00000     2.72077
  392. RY (20) C 12             0.00000     2.49161
  393. RY (21) C 12             0.00000     3.17195
  394. RY (22) C 12             0.00000    15.57369
  395. RY (23) C 12             0.00000     4.97388
  396. RY (24) C 12             0.00000     3.28059
  397. RY (25) C 12             0.00000     1.68866
  398. RY (26) C 12             0.00000     3.31384
  399. RY ( 1) C 13             0.00407     1.56137
  400. RY ( 2) C 13             0.00323     0.52287
  401. RY ( 3) C 13             0.00096     1.58311
  402. RY ( 4) C 13             0.00051     1.88188
  403. RY ( 5) C 13             0.00027     3.59834
  404. RY ( 6) C 13             0.00020     3.29890
  405. RY ( 7) C 13             0.00017     2.05213
  406. RY ( 8) C 13             0.00002     2.40686
  407. RY ( 9) C 13             0.00001     3.36497
  408. RY (10) C 13             0.00001     2.69830
  409. RY (11) C 13             0.00001     1.47251
  410. RY (12) C 13             0.00001     2.26150
  411. RY (13) C 13             0.00000     3.33370
  412. RY (14) C 13             0.00000     2.50379
  413. RY (15) C 13             0.00000     7.45302
  414. RY (16) C 13             0.00000     3.31815
  415. RY (17) C 13             0.00000     3.25216
  416. RY (18) C 13             0.00000     3.29069
  417. RY (19) C 13             0.00000     2.26287
  418. RY (20) C 13             0.00000     3.15403
  419. RY (21) C 13             0.00000     2.43296
  420. RY (22) C 13             0.00000     9.34137
  421. RY (23) C 13             0.00000     6.85688
  422. RY (24) C 13             0.00000     1.68260
  423. RY (25) C 13             0.00000     6.40763
  424. RY (26) C 13             0.00000     3.21986
  425. RY ( 1) C 14             0.00474     1.56042
  426. RY ( 2) C 14             0.00166     1.21196
  427. RY ( 3) C 14             0.00090     1.14265
  428. RY ( 4) C 14             0.00082     1.15644
  429. RY ( 5) C 14             0.00037     2.02240
  430. RY ( 6) C 14             0.00032     3.79736
  431. RY ( 7) C 14             0.00007     1.78500
  432. RY ( 8) C 14             0.00008     2.80618
  433. RY ( 9) C 14             0.00002     2.43379
  434. RY (10) C 14             0.00002     3.14183
  435. RY (11) C 14             0.00001     3.37638
  436. RY (12) C 14             0.00001     2.72187
  437. RY (13) C 14             0.00000     2.92360
  438. RY (14) C 14             0.00000     4.41657
  439. RY (15) C 14             0.00000     8.47169
  440. RY (16) C 14             0.00000     2.29919
  441. RY (17) C 14             0.00000     2.74948
  442. RY (18) C 14             0.00000     3.39901
  443. RY (19) C 14             0.00000     2.68415
  444. RY (20) C 14             0.00000     2.88131
  445. RY (21) C 14             0.00000     4.64297
  446. RY (22) C 14             0.00000     2.99267
  447. RY (23) C 14             0.00000     3.06105
  448. RY (24) C 14             0.00000     3.54569
  449. RY (25) C 14             0.00000    12.70365
  450. RY (26) C 14             0.00000     1.74263
  451. RY ( 1) C 15             0.00425     1.55889
  452. RY ( 2) C 15             0.00176     1.27166
  453. RY ( 3) C 15             0.00162     0.52492
  454. RY ( 4) C 15             0.00086     1.75962
  455. RY ( 5) C 15             0.00032     1.78223
  456. RY ( 6) C 15             0.00030     3.31050
  457. RY ( 7) C 15             0.00025     2.17876
  458. RY ( 8) C 15             0.00017     2.88846
  459. RY ( 9) C 15             0.00008     2.60708
  460. RY (10) C 15             0.00005     3.07520
  461. RY (11) C 15             0.00002     3.13496
  462. RY (12) C 15             0.00002     2.51664
  463. RY (13) C 15             0.00001     3.64158
  464. RY (14) C 15             0.00001     2.25931
  465. RY (15) C 15             0.00001     2.81432
  466. RY (16) C 15             0.00000     1.56680
  467. RY (17) C 15             0.00000     5.23370
  468. RY (18) C 15             0.00000     3.34604
  469. RY (19) C 15             0.00000     3.09753
  470. RY (20) C 15             0.00000     3.00839
  471. RY (21) C 15             0.00000     3.33185
  472. RY (22) C 15             0.00000     9.60039
  473. RY (23) C 15             0.00000     1.87294
  474. RY (24) C 15             0.00000     4.24402
  475. RY (25) C 15             0.00000     7.52521
  476. RY (26) C 15             0.00000     7.61020
  477. RY ( 1) H 16             0.00342     0.55106
  478. RY ( 2) H 16             0.00022     1.75912
  479. RY ( 3) H 16             0.00014     2.56152
  480. RY ( 4) H 16             0.00012     2.76382
  481. RY ( 5) H 16             0.00004     3.35909
  482. RY ( 6) H 16             0.00001     3.20815
  483. RY ( 7) H 16             0.00001     3.34088
  484. RY ( 8) H 16             0.00000     4.44839
  485. RY ( 9) H 16             0.00000     3.47390
  486. RY (10) H 16             0.00000     4.31343
  487. RY (11) H 16             0.00000     3.87620
  488. RY (12) H 16             0.00000     4.00224
  489. RY (13) H 16             0.00000     3.95668
  490. RY ( 1) H 17             0.00336     0.55342
  491. RY ( 2) H 17             0.00022     1.70296
  492. RY ( 3) H 17             0.00014     2.54044
  493. RY ( 4) H 17             0.00010     2.40072
  494. RY ( 5) H 17             0.00005     3.61810
  495. RY ( 6) H 17             0.00001     3.40484
  496. RY ( 7) H 17             0.00000     4.01070
  497. RY ( 8) H 17             0.00000     3.83780
  498. RY ( 9) H 17             0.00000     3.45012
  499. RY (10) H 17             0.00000     4.30144
  500. RY (11) H 17             0.00000     4.10301
  501. RY (12) H 17             0.00000     4.08698
  502. RY (13) H 17             0.00000     3.49833
  503. RY ( 1) H 18             0.00088     0.94899
  504. RY ( 2) H 18             0.00022     2.72374
  505. RY ( 3) H 18             0.00011     3.03764
  506. RY ( 4) H 18             0.00010     2.85517
  507. RY ( 5) H 18             0.00004     2.92564
  508. RY ( 6) H 18             0.00001     2.77062
  509. RY ( 7) H 18             0.00001     4.26067
  510. RY ( 8) H 18             0.00001     2.28853
  511. RY ( 9) H 18             0.00000     4.00019
  512. RY (10) H 18             0.00000     4.01017
  513. RY (11) H 18             0.00000     4.54650
  514. RY (12) H 18             0.00000     3.53566
  515. RY (13) H 18             0.00000     4.26330
  516. RY ( 1) H 19             0.00046     0.78519
  517. RY ( 2) H 19             0.00013     3.26786
  518. RY ( 3) H 19             0.00011     2.25165
  519. RY ( 4) H 19             0.00010     2.77057
  520. RY ( 5) H 19             0.00003     2.55909
  521. RY ( 6) H 19             0.00001     2.35539
  522. RY ( 7) H 19             0.00001     2.89541
  523. RY ( 8) H 19             0.00000     3.42227
  524. RY ( 9) H 19             0.00000     4.64741
  525. RY (10) H 19             0.00000     3.82064
  526. RY (11) H 19             0.00000     3.94954
  527. RY (12) H 19             0.00000     4.32919
  528. RY (13) H 19             0.00000     4.31125
  529. RY ( 1) H 20             0.00040     0.73976
  530. RY ( 2) H 20             0.00017     1.80043
  531. RY ( 3) H 20             0.00011     3.53520
  532. RY ( 4) H 20             0.00010     2.91876
  533. RY ( 5) H 20             0.00002     2.22312
  534. RY ( 6) H 20             0.00002     2.38183
  535. RY ( 7) H 20             0.00001     3.20225
  536. RY ( 8) H 20             0.00000     4.46683
  537. RY ( 9) H 20             0.00000     3.53562
  538. RY (10) H 20             0.00000     4.34342
  539. RY (11) H 20             0.00000     3.86333
  540. RY (12) H 20             0.00000     4.56481
  541. RY (13) H 20             0.00000     3.73037
  542. RY ( 1) H 21             0.00045     0.76108
  543. RY ( 2) H 21             0.00013     3.29217
  544. RY ( 3) H 21             0.00012     2.22963
  545. RY ( 4) H 21             0.00010     2.81257
  546. RY ( 5) H 21             0.00003     2.52167
  547. RY ( 6) H 21             0.00001     2.34277
  548. RY ( 7) H 21             0.00001     2.92884
  549. RY ( 8) H 21             0.00000     3.40141
  550. RY ( 9) H 21             0.00000     4.59828
  551. RY (10) H 21             0.00000     3.81611
  552. RY (11) H 21             0.00000     3.96065
  553. RY (12) H 21             0.00000     4.34761
  554. RY (13) H 21             0.00000     4.31619
  555. RY ( 1) H 22             0.00067     0.80063
  556. RY ( 2) H 22             0.00016     2.86572
  557. RY ( 3) H 22             0.00012     2.36787
  558. RY ( 4) H 22             0.00012     2.88108
  559. RY ( 5) H 22             0.00003     2.70002
  560. RY ( 6) H 22             0.00001     3.22528
  561. RY ( 7) H 22             0.00001     2.72743
  562. RY ( 8) H 22             0.00000     3.51101
  563. RY ( 9) H 22             0.00000     3.53583
  564. RY (10) H 22             0.00000     4.26997
  565. RY (11) H 22             0.00000     4.29262
  566. RY (12) H 22             0.00000     4.03436
  567. RY (13) H 22             0.00000     4.42457
  568. RY ( 1) H 23             0.00068     0.72848
  569. RY ( 2) H 23             0.00013     2.77402
  570. RY ( 3) H 23             0.00011     1.99329
  571. RY ( 4) H 23             0.00007     3.47351
  572. RY ( 5) H 23             0.00003     2.60962
  573. RY ( 6) H 23             0.00002     3.11032
  574. RY ( 7) H 23             0.00001     2.11581
  575. RY ( 8) H 23             0.00000     3.37836
  576. RY ( 9) H 23             0.00000     4.80220
  577. RY (10) H 23             0.00000     4.31687
  578. RY (11) H 23             0.00000     3.58689
  579. RY (12) H 23             0.00000     4.05700
  580. RY (13) H 23             0.00000     4.07778
  581. RY ( 1) H 24             0.00031     0.71870
  582. RY ( 2) H 24             0.00019     1.75686
  583. RY ( 3) H 24             0.00012     3.05455
  584. RY ( 4) H 24             0.00011     3.65240
  585. RY ( 5) H 24             0.00002     2.24851
  586. RY ( 6) H 24             0.00001     3.26232
  587. RY ( 7) H 24             0.00001     2.73885
  588. RY ( 8) H 24             0.00000     3.80814
  589. RY ( 9) H 24             0.00000     4.35307
  590. RY (10) H 24             0.00000     3.46954
  591. RY (11) H 24             0.00000     4.45430
  592. RY (12) H 24             0.00000     3.52064
  593. RY (13) H 24             0.00000     4.16389
  594. RY ( 1) H 25             0.00056     0.74683
  595. RY ( 2) H 25             0.00012     3.42668
  596. RY ( 3) H 25             0.00011     2.77696
  597. RY ( 4) H 25             0.00010     2.52419
  598. RY ( 5) H 25             0.00002     2.38627
  599. RY ( 6) H 25             0.00001     2.20367
  600. RY ( 7) H 25             0.00000     3.39831
  601. RY ( 8) H 25             0.00000     4.65960
  602. RY ( 9) H 25             0.00000     2.65636
  603. RY (10) H 25             0.00000     4.28795
  604. RY (11) H 25             0.00000     3.82968
  605. RY (12) H 25             0.00000     3.98732
  606. RY (13) H 25             0.00000     4.38683
  607. RY ( 1) H 26             0.00083     1.01424
  608. RY ( 2) H 26             0.00020     2.90875
  609. RY ( 3) H 26             0.00012     2.89174
  610. RY ( 4) H 26             0.00010     2.90417
  611. RY ( 5) H 26             0.00003     2.70882
  612. RY ( 6) H 26             0.00001     3.15727
  613. RY ( 7) H 26             0.00000     4.27953
  614. RY ( 8) H 26             0.00000     2.52207
  615. RY ( 9) H 26             0.00000     4.60058
  616. RY (10) H 26             0.00000     3.42340
  617. RY (11) H 26             0.00000     3.99947
  618. RY (12) H 26             0.00000     3.55138
  619. RY (13) H 26             0.00000     4.10030
          -------------------------------
                 Total Lewis  100.54990  ( 96.6826%)
           Valence non-Lewis    3.25344  (  3.1283%)
           Rydberg non-Lewis    0.19666  (  0.1891%)
          -------------------------------
               Total unit  1  104.00000  (100.0000%)
              Charge unit  1   -1.00000

 $CHOOSE
   LONE 2 1 3 1 11 1 END
   BOND S 1 2 D 1 11 S 1 15 S 2 3 S 2 16 D 3 4 S 4 5 S 4 17 S 5 6 D 5 10 D 6 7
        S 6 18 S 7 8 S 7 19 D 8 9 S 8 20 S 9 10 S 9 21 S 10 22 S 11 12 D 12 13
        S 12 23 S 13 14 S 13 24 D 14 15 S 14 25 S 15 26 END
 $END

 NBO analysis completed in 15.08 CPU seconds (15 wall seconds)
 Maximum scratch memory used by NBO was 3594707 words (27.43 MB)
 Maximum scratch memory used by G16NBO was 587514 words (4.48 MB)

 Opening RunExU unformatted file "/scratch/general/vast/u6067110/GAUSSSCRDIR/10754890-notchpeak.peaks/Gau-998918.EUF"
 Read unf file /scratch/general/vast/u6067110/GAUSSSCRDIR/10754890-notchpeak.peaks/Gau-998918.EUF:
 Label Gaussian matrix elements                                         IVers= 2 NLab= 2 Version=ES64L-G16RevC.01
 Title vsa2_crest_conformers-1                                         
 NAtoms=    26 NBasis=   619 NBsUse=   619 ICharg=    -1 Multip=     1 NE=   104 Len12L=8 Len4L=8 IOpCl= 0 ICGU=111
 GAUSSIAN SCALARS                    NI= 1 NR= 1 NTot=       1 LenBuf=    2 NRI=1 N=    1000
 NPA CHARGES                         NI= 0 NR= 1 NTot=      26 LenBuf= 4000 NRI=1 N=      26
 Recovered energy= -611.561551763     dipole=     -0.866508913261      1.171718257199     -0.000130135778

 ----------------------------------------------------------------------

 Electric dipole moment (input orientation):
 (Debye = 10**-18 statcoulomb cm , SI units = C m)
                  (au)            (Debye)         (10**-30 SI)
   Tot        0.145731D+01      0.370412D+01      0.123556D+02
   x         -0.869886D+00     -0.221103D+01     -0.737520D+01
   y          0.116921D+01      0.297184D+01      0.991300D+01
   z         -0.130136D-03     -0.330772D-03     -0.110334D-02

 Dipole polarizability, Alpha (input orientation).
 (esu units = cm**3 , SI units = C**2 m**2 J**-1)
 Alpha(0;0):
               (au)            (10**-24 esu)      (10**-40 SI)
   iso        0.372107D+03      0.551405D+02      0.613521D+02
   aniso      0.582595D+03      0.863316D+02      0.960569D+02
   xx         0.753878D+03      0.111713D+03      0.124298D+03
   yx         0.132315D+02      0.196070D+01      0.218157D+01
   yy         0.241652D+03      0.358091D+02      0.398430D+02
   zx        -0.183339D-01     -0.271680D-02     -0.302285D-02
   zy        -0.166809D-01     -0.247186D-02     -0.275031D-02
   zz         0.120791D+03      0.178994D+02      0.199157D+02

 First dipole hyperpolarizability, Beta (input orientation).
 ||, _|_  parallel and perpendicular components, (z) with respect to z axis,
 vector components x,y,z.  Values do not include the 1/n! factor of 1/2.
 (esu units = statvolt**-1 cm**4 , SI units = C**3 m**3 J**-2)
 Beta(0;0,0):
               (au)            (10**-30 esu)      (10**-50 SI)
   || (z)    -0.480529D+00     -0.415139D-02     -0.154075D-02
   _|_(z)    -0.160176D+00     -0.138380D-02     -0.513583D-03
   x         -0.231559D+05     -0.200049D+03     -0.742461D+02
   y          0.211988D+05      0.183141D+03      0.679709D+02
   z         -0.240264D+01     -0.207570D-01     -0.770374D-02
   ||         0.627879D+04      0.542439D+02      0.201321D+02
   xxx       -0.793659D+04     -0.685660D+02     -0.254476D+02
   xxy        0.727833D+04      0.628791D+02      0.233369D+02
   yxy        0.222951D+03      0.192613D+01      0.714863D+00
   yyy       -0.236767D+03     -0.204548D+01     -0.759161D+00
   xxz       -0.820539D+00     -0.708882D-02     -0.263094D-02
   yxz       -0.230313D+00     -0.198973D-02     -0.738467D-03
   yyz        0.335195D-01      0.289583D-03      0.107476D-03
   zxz       -0.498230D+01     -0.430432D-01     -0.159750D-01
   zyz        0.246921D+02      0.213320D+00      0.791718D-01
   zzz       -0.138618D-01     -0.119755D-03     -0.444458D-04

 ----------------------------------------------------------------------

 Dipole orientation:
     6          2.54243968          1.89164289         -3.37716407
     6          0.39186474          0.29123118         -3.06262077
     7         -0.46367745         -0.34540955         -0.80201328
     6         -2.43402292         -1.81165018         -0.45251052
     6         -3.33007181         -2.47844782          2.02886248
     6         -2.14121711         -1.59377622          4.26330486
     6         -3.03426450         -2.25833296          6.63564260
     6         -5.14714782         -3.83061870          6.91661510
     6         -6.34388291         -4.72116710          4.73740183
     6         -5.46150371         -4.06454942          2.35135487
     7          3.29614269          2.45240951         -5.76838113
     6          5.28919280          3.93547651         -6.08476503
     6          6.71482869          4.99640894         -4.13832774
     6          5.95246626          4.42917131         -1.65676492
     6          3.88797188          2.89291662         -1.26204168
     1         -0.51912285         -0.38674078         -4.80840470
     1         -3.48058697         -2.59045646         -2.08443472
     1         -0.49687267         -0.37014688          4.04446590
     1         -2.06741697         -1.53885900          8.31458173
     1         -5.84045379         -4.34653409          8.78942185
     1         -7.99648403         -5.95094367          4.90287931
     1         -6.42289827         -4.77997141          0.66762271
     1          5.81770918          4.32873686         -8.05461686
     1          8.33604341          6.20279188         -4.54137219
     1          6.98922264          5.20069402         -0.04325976
     1          3.22370749          2.39865010          0.62330487

 Electric dipole moment (dipole orientation):
 (Debye = 10**-18 statcoulomb cm , SI units = C m)
                  (au)            (Debye)         (10**-30 SI)
   Tot        0.145731D+01      0.370412D+01      0.123556D+02
   x          0.000000D+00      0.000000D+00      0.000000D+00
   y          0.000000D+00      0.000000D+00      0.000000D+00
   z          0.145731D+01      0.370412D+01      0.123556D+02

 Dipole polarizability, Alpha (dipole orientation).
 (esu units = cm**3 , SI units = C**2 m**2 J**-1)
 Alpha(0;0):
               (au)            (10**-24 esu)      (10**-40 SI)
   iso        0.372107D+03      0.551405D+02      0.613521D+02
   aniso      0.582595D+03      0.863316D+02      0.960569D+02
   xx         0.418941D+03      0.620807D+02      0.690741D+02
   yx         0.221868D+03      0.328774D+02      0.365811D+02
   yy         0.285893D+03      0.423650D+02      0.471374D+02
   zx        -0.193748D+03     -0.287105D+02     -0.319447D+02
   zy        -0.144176D+03     -0.213647D+02     -0.237714D+02
   zz         0.411486D+03      0.609759D+02      0.678449D+02

 First dipole hyperpolarizability, Beta (dipole orientation).
 ||, _|_  parallel and perpendicular components, (z) with respect to z axis,
 vector components x,y,z.  Values do not include the 1/n! factor of 1/2.
 (esu units = statvolt**-1 cm**4 , SI units = C**3 m**3 J**-2)
 Beta(0;0,0):
               (au)            (10**-30 esu)      (10**-50 SI)
   || (z)     0.616598D+04      0.532693D+02      0.197704D+02
   _|_(z)     0.205533D+04      0.177564D+02      0.659012D+01
   x         -0.475296D+04     -0.410618D+02     -0.152397D+02
   y         -0.353660D+04     -0.305535D+02     -0.113396D+02
   z          0.308299D+05      0.266346D+03      0.988518D+02
   ||         0.627879D+04      0.542439D+02      0.201321D+02
   xxx        0.229736D+04      0.198474D+02      0.736617D+01
   xxy        0.169680D+04      0.146590D+02      0.544054D+01
   yxy        0.126654D+04      0.109419D+02      0.406099D+01
   yyy        0.955347D+03      0.825346D+01      0.306319D+01
   xxz        0.174802D+04      0.151015D+02      0.560478D+01
   yxz        0.128379D+04      0.110910D+02      0.411630D+01
   yyz        0.978089D+03      0.844993D+01      0.313611D+01
   zxz       -0.514822D+04     -0.444766D+02     -0.165071D+02
   zyz       -0.383101D+04     -0.330969D+02     -0.122836D+02
   zzz        0.755053D+04      0.652307D+02      0.242097D+02

 ----------------------------------------------------------------------
 Unable to Open any file for archive entry.
 1\1\GINC-NOTCH079\SP\RM062X\def2TZVPP\C13H11N2(1-)\U6067110\31-Jan-202
 6\0\\#N Guess=Read Geom=Check Integral(Ultrafine) Density Pop=NBO7 Pop
 =Hirshfeld Pop=(ChelpG,ReadRadii) Polar Prop=(Potential,EFG) Volume M0
 62X EmpiricalDispersion=GD3 def2TZVPP SCRF(IEFPCM,solvent=THF)\\vsa2_c
 rest_conformers-1\\-1,1\C,0,2.4121733264,-0.4328341371,0.0001224934\C,
 0,1.1746812803,-1.1460556694,0.0002776814\N,0,0.0078548536,-0.52313907
 ,0.0002234741\C,0,-1.1452858436,-1.150545678,0.000342311\C,0,-2.403286
 1697,-0.4498516835,0.0002862627\C,0,-2.4799243128,0.966898888,0.000107
 2812\C,0,-3.7018931956,1.6224837228,0.0000530718\C,0,-4.9088144178,0.9
 09864386,0.0001743167\C,0,-4.8537952099,-0.4865430997,0.0003565669\C,0
 ,-3.6331418444,-1.1521488519,0.0004122774\N,0,3.5663376254,-1.15131727
 04,0.0002281075\C,0,4.7210151412,-0.5009231056,0.0001356042\C,0,4.8606
 735162,0.8867911953,-0.0000711445\C,0,3.6733819769,1.6402171783,-0.000
 1689362\C,0,2.4561440733,0.9949487632,-0.0000658295\H,0,1.2439991258,-
 2.2459485551,0.0004468792\H,0,-1.1836685293,-2.2554685891,0.0004918947
 \H,0,-1.5405864079,1.5214196567,0.0000115823\H,0,-3.7205513998,2.71597
 82431,-0.0000886156\H,0,-5.8672881303,1.432012485,0.0001287346\H,0,-5.
 7806480851,-1.0669706772,0.0004566214\H,0,-3.6100853417,-2.2455323974,
 0.0005563124\H,0,5.6229263359,-1.1291611909,0.0002082066\H,0,5.8459473
 28,1.3539917056,-0.0001419722\H,0,3.7123960775,2.7334612307,-0.0003232
 821\H,0,1.5090882276,1.5338625207,-0.0001298993\\Version=ES64L-G16RevC
 .01\State=1-A\HF=-611.5615518\RMSD=6.480e-09\Dipole=-0.8698858,1.16921
 34,-0.0001301\Polar=753.8779831,13.2314579,241.6516051,-0.0183339,-0.0
 166809,120.7909941\HyperPolar=-7936.5909562,7278.3254916,222.9513934,-
 236.7670067,-0.8205391,-0.2303132,0.0335195,-4.9822967,24.6920913,-0.0
 138618\Quadrupole=-14.1654712,10.0801265,4.0853447,6.7933572,-0.000356
 ,-0.0010103\PG=C01 [X(C13H11N2)]\\@
 The archive entry for this job was punched.


 It takes a long time to grow an old friend.
                            -- John Leonard
 Job cpu time:       0 days  3 hours 52 minutes 26.1 seconds.
 Elapsed time:       0 days  0 hours  7 minutes 20.3 seconds.
 File lengths (MBytes):  RWF=    294 Int=      0 D2E=      0 Chk=     28 Scr=      2
 Normal termination of Gaussian 16 at Sat Jan 31 06:25:00 2026.
 Initial command:
 /uufs/chpc.utah.edu/sys/installdir/gaussian16/C01/AVX/g16/l1.exe "/scratch/general/vast/u6067110/GAUSSSCRDIR/10754890-notchpeak.peaks/Gau-996273.inp" -scrdir="/scratch/general/vast/u6067110/GAUSSSCRDIR/10754890-notchpeak.peaks/"
 Entering Link 1 = /uufs/chpc.utah.edu/sys/installdir/gaussian16/C01/AVX/g16/l1.exe PID=    999530.
  
 Copyright (c) 1988-2019, Gaussian, Inc.  All Rights Reserved.
  
 This is part of the Gaussian(R) 16 program.  It is based on
 the Gaussian(R) 09 system (copyright 2009, Gaussian, Inc.),
 the Gaussian(R) 03 system (copyright 2003, Gaussian, Inc.),
 the Gaussian(R) 98 system (copyright 1998, Gaussian, Inc.),
 the Gaussian(R) 94 system (copyright 1995, Gaussian, Inc.),
 the Gaussian 92(TM) system (copyright 1992, Gaussian, Inc.),
 the Gaussian 90(TM) system (copyright 1990, Gaussian, Inc.),
 the Gaussian 88(TM) system (copyright 1988, Gaussian, Inc.),
 the Gaussian 86(TM) system (copyright 1986, Carnegie Mellon
 University), and the Gaussian 82(TM) system (copyright 1983,
 Carnegie Mellon University). Gaussian is a federally registered
 trademark of Gaussian, Inc.
  
 This software contains proprietary and confidential information,
 including trade secrets, belonging to Gaussian, Inc.
  
 This software is provided under written license and may be
 used, copied, transmitted, or stored only in accord with that
 written license.
  
 The following legend is applicable only to US Government
 contracts under FAR:
  
                    RESTRICTED RIGHTS LEGEND
  
 Use, reproduction and disclosure by the US Government is
 subject to restrictions as set forth in subparagraphs (a)
 and (c) of the Commercial Computer Software - Restricted
 Rights clause in FAR 52.227-19.
  
 Gaussian, Inc.
 340 Quinnipiac St., Bldg. 40, Wallingford CT 06492
  
  
 ---------------------------------------------------------------
 Warning -- This program may not be used in any manner that
 competes with the business of Gaussian, Inc. or will provide
 assistance to any competitor of Gaussian, Inc.  The licensee
 of this program is prohibited from giving any competitor of
 Gaussian, Inc. access to this program.  By using this program,
 the user acknowledges that Gaussian, Inc. is engaged in the
 business of creating and licensing software in the field of
 computational chemistry and represents and warrants to the
 licensee that it is not a competitor of Gaussian, Inc. and that
 it will not use this program in any manner prohibited above.
 ---------------------------------------------------------------
  

 Cite this work as:
 Gaussian 16, Revision C.01,
 M. J. Frisch, G. W. Trucks, H. B. Schlegel, G. E. Scuseria, 
 M. A. Robb, J. R. Cheeseman, G. Scalmani, V. Barone, 
 G. A. Petersson, H. Nakatsuji, X. Li, M. Caricato, A. V. Marenich, 
 J. Bloino, B. G. Janesko, R. Gomperts, B. Mennucci, H. P. Hratchian, 
 J. V. Ortiz, A. F. Izmaylov, J. L. Sonnenberg, D. Williams-Young, 
 F. Ding, F. Lipparini, F. Egidi, J. Goings, B. Peng, A. Petrone, 
 T. Henderson, D. Ranasinghe, V. G. Zakrzewski, J. Gao, N. Rega, 
 G. Zheng, W. Liang, M. Hada, M. Ehara, K. Toyota, R. Fukuda, 
 J. Hasegawa, M. Ishida, T. Nakajima, Y. Honda, O. Kitao, H. Nakai, 
 T. Vreven, K. Throssell, J. A. Montgomery, Jr., J. E. Peralta, 
 F. Ogliaro, M. J. Bearpark, J. J. Heyd, E. N. Brothers, K. N. Kudin, 
 V. N. Staroverov, T. A. Keith, R. Kobayashi, J. Normand, 
 K. Raghavachari, A. P. Rendell, J. C. Burant, S. S. Iyengar, 
 J. Tomasi, M. Cossi, J. M. Millam, M. Klene, C. Adamo, R. Cammi, 
 J. W. Ochterski, R. L. Martin, K. Morokuma, O. Farkas, 
 J. B. Foresman, and D. J. Fox, Gaussian, Inc., Wallingford CT, 2019.
 
 ******************************************
 Gaussian 16:  ES64L-G16RevC.01  3-Jul-2019
                31-Jan-2026 
 ******************************************
 %NProcShared=32
 Will use up to   32 processors via shared memory.
 %Mem=48GB
 %chk=vsa2_crest_conformers-1.chk
 ----------------------------------------------------------------------
 #N Guess=Read Geom=Check Integral(Ultrafine) Density NMR M062X Empiric
 alDispersion=GD3 def2TZVPP SCRF(IEFPCM,solvent=THF)
 ----------------------------------------------------------------------
 1/29=2,38=1,172=1/1;
 2/12=2,40=1/2;
 3/5=44,7=202,11=2,14=-4,25=1,30=1,70=2201,72=20,74=-55,75=-5,116=-2,124=31/1,2,3,8;
 4/5=1/1;
 5/5=2,38=6,53=20/2;
 8/6=1,10=90,11=11/1;
 10/13=100,45=16/2;
 6/7=2,8=2,9=2,10=2,22=-1,28=1/1;
 99/9=1/99;
 -----------------------
 vsa2_crest_conformers-1
 -----------------------
 Structure from the checkpoint file:  "vsa2_crest_conformers-1.chk"
 Charge = -1 Multiplicity = 1
 Redundant internal coordinates found in file.  (old form).
 C,0,2.4121733264,-0.4328341371,0.0001224934
 C,0,1.1746812803,-1.1460556694,0.0002776814
 N,0,0.0078548536,-0.52313907,0.0002234741
 C,0,-1.1452858436,-1.150545678,0.000342311
 C,0,-2.4032861697,-0.4498516835,0.0002862627
 C,0,-2.4799243128,0.966898888,0.0001072812
 C,0,-3.7018931956,1.6224837228,0.0000530718
 C,0,-4.9088144178,0.909864386,0.0001743167
 C,0,-4.8537952099,-0.4865430997,0.0003565669
 C,0,-3.6331418444,-1.1521488519,0.0004122774
 N,0,3.5663376254,-1.1513172704,0.0002281075
 C,0,4.7210151412,-0.5009231056,0.0001356042
 C,0,4.8606735162,0.8867911953,-0.0000711445
 C,0,3.6733819769,1.6402171783,-0.0001689362
 C,0,2.4561440733,0.9949487632,-0.0000658295
 H,0,1.2439991258,-2.2459485551,0.0004468792
 H,0,-1.1836685293,-2.2554685891,0.0004918947
 H,0,-1.5405864079,1.5214196567,0.0000115823
 H,0,-3.7205513998,2.7159782431,-0.0000886156
 H,0,-5.8672881303,1.432012485,0.0001287346
 H,0,-5.7806480851,-1.0669706772,0.0004566214
 H,0,-3.6100853417,-2.2455323974,0.0005563124
 H,0,5.6229263359,-1.1291611909,0.0002082066
 H,0,5.845947328,1.3539917056,-0.0001419722
 H,0,3.7123960775,2.7334612307,-0.0003232821
 H,0,1.5090882276,1.5338625207,-0.0001298993
 Recover connectivity data from disk.
                           ----------------------------
                           !    Current Parameters    !
                           ! (Angstroms and Degrees)  !
 --------------------------                            --------------------------
 ! Name  Definition              Value                                          !
 --------------------------------------------------------------------------------
 ! R1    R(1,2)                  1.4283                                         !
 ! R2    R(1,11)                 1.3595                                         !
 ! R3    R(1,15)                 1.4285                                         !
 ! R4    R(2,3)                  1.3227                                         !
 ! R5    R(2,16)                 1.1021                                         !
 ! R6    R(3,4)                  1.3128                                         !
 ! R7    R(4,5)                  1.44                                           !
 ! R8    R(4,17)                 1.1056                                         !
 ! R9    R(5,6)                  1.4188                                         !
 ! R10   R(5,10)                 1.4163                                         !
 ! R11   R(6,7)                  1.3867                                         !
 ! R12   R(6,18)                 1.0908                                         !
 ! R13   R(7,8)                  1.4016                                         !
 ! R14   R(7,19)                 1.0937                                         !
 ! R15   R(8,9)                  1.3975                                         !
 ! R16   R(8,20)                 1.0915                                         !
 ! R17   R(9,10)                 1.3903                                         !
 ! R18   R(9,21)                 1.0936                                         !
 ! R19   R(10,22)                1.0936                                         !
 ! R20   R(11,12)                1.3253                                         !
 ! R21   R(12,13)                1.3947                                         !
 ! R22   R(12,23)                1.0991                                         !
 ! R23   R(13,14)                1.4062                                         !
 ! R24   R(13,24)                1.0904                                         !
 ! R25   R(14,15)                1.3777                                         !
 ! R26   R(14,25)                1.0939                                         !
 ! R27   R(15,26)                1.0897                                         !
 ! A1    A(2,1,11)             118.1404                                         !
 ! A2    A(2,1,15)             121.7207                                         !
 ! A3    A(11,1,15)            120.1389                                         !
 ! A4    A(1,2,3)              121.9475                                         !
 ! A5    A(1,2,16)             116.3506                                         !
 ! A6    A(3,2,16)             121.7019                                         !
 ! A7    A(2,3,4)              123.3543                                         !
 ! A8    A(3,4,5)              122.3327                                         !
 ! A9    A(3,4,17)             120.5395                                         !
 ! A10   A(5,4,17)             117.1278                                         !
 ! A11   A(4,5,6)              122.2137                                         !
 ! A12   A(4,5,10)             121.1545                                         !
 ! A13   A(6,5,10)             116.6318                                         !
 ! A14   A(5,6,7)              121.3099                                         !
 ! A15   A(5,6,18)             117.4583                                         !
 ! A16   A(7,6,18)             121.2318                                         !
 ! A17   A(6,7,8)              121.227                                          !
 ! A18   A(6,7,19)             119.191                                          !
 ! A19   A(8,7,19)             119.5819                                         !
 ! A20   A(7,8,9)              118.3032                                         !
 ! A21   A(7,8,20)             120.8603                                         !
 ! A22   A(9,8,20)             120.8366                                         !
 ! A23   A(8,9,10)             120.8594                                         !
 ! A24   A(8,9,21)             119.7999                                         !
 ! A25   A(10,9,21)            119.3407                                         !
 ! A26   A(5,10,9)             121.6689                                         !
 ! A27   A(5,10,22)            118.5201                                         !
 ! A28   A(9,10,22)            119.8111                                         !
 ! A29   A(1,11,12)            118.706                                          !
 ! A30   A(11,12,13)           125.1381                                         !
 ! A31   A(11,12,23)           115.7491                                         !
 ! A32   A(13,12,23)           119.1128                                         !
 ! A33   A(12,13,14)           116.6514                                         !
 ! A34   A(12,13,24)           121.1164                                         !
 ! A35   A(14,13,24)           122.2323                                         !
 ! A36   A(13,14,15)           119.6733                                         !
 ! A37   A(13,14,25)           120.3544                                         !
 ! A38   A(15,14,25)           119.9723                                         !
 ! A39   A(1,15,14)            119.6924                                         !
 ! A40   A(1,15,26)            117.8777                                         !
 ! A41   A(14,15,26)           122.4299                                         !
 ! D1    D(11,1,2,3)           179.9983                                         !
 ! D2    D(11,1,2,16)           -0.0016                                         !
 ! D3    D(15,1,2,3)             0.0016                                         !
 ! D4    D(15,1,2,16)         -179.9983                                         !
 ! D5    D(2,1,11,12)         -179.9976                                         !
 ! D6    D(15,1,11,12)          -0.0008                                         !
 ! D7    D(2,1,15,14)          179.998                                          !
 ! D8    D(2,1,15,26)           -0.0025                                         !
 ! D9    D(11,1,15,14)           0.0014                                         !
 ! D10   D(11,1,15,26)        -179.9991                                         !
 ! D11   D(1,2,3,4)            179.999                                          !
 ! D12   D(16,2,3,4)            -0.0011                                         !
 ! D13   D(2,3,4,5)            179.9997                                         !
 ! D14   D(2,3,4,17)            -0.0003                                         !
 ! D15   D(3,4,5,6)             -0.0004                                         !
 ! D16   D(3,4,5,10)           179.9998                                         !
 ! D17   D(17,4,5,6)           179.9996                                         !
 ! D18   D(17,4,5,10)           -0.0003                                         !
 ! D19   D(4,5,6,7)            179.9999                                         !
 ! D20   D(4,5,6,18)             0.0                                            !
 ! D21   D(10,5,6,7)            -0.0003                                         !
 ! D22   D(10,5,6,18)          179.9998                                         !
 ! D23   D(4,5,10,9)          -179.9998                                         !
 ! D24   D(4,5,10,22)            0.0001                                         !
 ! D25   D(6,5,10,9)             0.0003                                         !
 ! D26   D(6,5,10,22)         -179.9997                                         !
 ! D27   D(5,6,7,8)              0.0001                                         !
 ! D28   D(5,6,7,19)          -179.9998                                         !
 ! D29   D(18,6,7,8)           179.9999                                         !
 ! D30   D(18,6,7,19)            0.0                                            !
 ! D31   D(6,7,8,9)              0.0002                                         !
 ! D32   D(6,7,8,20)          -179.9999                                         !
 ! D33   D(19,7,8,9)          -179.9999                                         !
 ! D34   D(19,7,8,20)            0.0                                            !
 ! D35   D(7,8,9,10)            -0.0002                                         !
 ! D36   D(7,8,9,21)           179.9998                                         !
 ! D37   D(20,8,9,10)          179.9999                                         !
 ! D38   D(20,8,9,21)           -0.0001                                         !
 ! D39   D(8,9,10,5)            -0.0001                                         !
 ! D40   D(8,9,10,22)          180.0                                            !
 ! D41   D(21,9,10,5)          179.9999                                         !
 ! D42   D(21,9,10,22)          -0.0001                                         !
 ! D43   D(1,11,12,13)          -0.0003                                         !
 ! D44   D(1,11,12,23)        -179.9989                                         !
 ! D45   D(11,12,13,14)          0.0009                                         !
 ! D46   D(11,12,13,24)       -179.9997                                         !
 ! D47   D(23,12,13,14)        179.9994                                         !
 ! D48   D(23,12,13,24)         -0.0012                                         !
 ! D49   D(12,13,14,15)         -0.0003                                         !
 ! D50   D(12,13,14,25)        179.9995                                         !
 ! D51   D(24,13,14,15)       -179.9997                                         !
 ! D52   D(24,13,14,25)          0.0001                                         !
 ! D53   D(13,14,15,1)          -0.0008                                         !
 ! D54   D(13,14,15,26)        179.9997                                         !
 ! D55   D(25,14,15,1)         179.9994                                         !
 ! D56   D(25,14,15,26)         -0.0001                                         !
 --------------------------------------------------------------------------------
                          Input orientation:                          
 ---------------------------------------------------------------------
 Center     Atomic      Atomic             Coordinates (Angstroms)
 Number     Number       Type             X           Y           Z
 ---------------------------------------------------------------------
      1          6           0        2.412173   -0.432834    0.000122
      2          6           0        1.174681   -1.146056    0.000278
      3          7           0        0.007855   -0.523139    0.000223
      4          6           0       -1.145286   -1.150546    0.000342
      5          6           0       -2.403286   -0.449852    0.000286
      6          6           0       -2.479924    0.966899    0.000107
      7          6           0       -3.701893    1.622484    0.000053
      8          6           0       -4.908814    0.909864    0.000174
      9          6           0       -4.853795   -0.486543    0.000357
     10          6           0       -3.633142   -1.152149    0.000412
     11          7           0        3.566338   -1.151317    0.000228
     12          6           0        4.721015   -0.500923    0.000136
     13          6           0        4.860674    0.886791   -0.000071
     14          6           0        3.673382    1.640217   -0.000169
     15          6           0        2.456144    0.994949   -0.000066
     16          1           0        1.243999   -2.245949    0.000447
     17          1           0       -1.183669   -2.255469    0.000492
     18          1           0       -1.540586    1.521420    0.000012
     19          1           0       -3.720551    2.715978   -0.000089
     20          1           0       -5.867288    1.432012    0.000129
     21          1           0       -5.780648   -1.066971    0.000457
     22          1           0       -3.610085   -2.245532    0.000556
     23          1           0        5.622926   -1.129161    0.000208
     24          1           0        5.845947    1.353992   -0.000142
     25          1           0        3.712396    2.733461   -0.000323
     26          1           0        1.509088    1.533863   -0.000130
 ---------------------------------------------------------------------
                    Distance matrix (angstroms):
                    1          2          3          4          5
     1  C    0.000000
     2  C    1.428311   0.000000
     3  N    2.406014   1.322690   0.000000
     4  C    3.629136   2.319971   1.312773   0.000000
     5  C    4.815490   3.645072   2.412255   1.439978   0.000000
     6  C    5.088406   4.221459   2.899872   2.502965   1.418822
     7  C    6.450282   5.607655   4.285549   3.771728   2.445599
     8  C    7.443098   6.421505   5.121244   4.290622   2.850702
     9  C    7.266167   6.064444   4.861788   3.767485   2.450784
    10  C    6.087959   4.807827   3.694930   2.487857   1.416251
    11  N    1.359527   2.391662   3.613503   4.711624   6.010696
    12  C    2.309846   3.604536   4.713213   5.902160   7.124484
    13  C    2.781468   4.209395   5.053489   6.342105   7.385914
    14  C    2.426559   3.742569   4.256313   5.568475   6.426063
    15  C    1.428460   2.495205   2.880748   4.192069   5.069666
    16  H    2.156853   1.102075   2.120407   2.628420   4.065545
    17  H    4.031386   2.606264   2.102545   1.105589   2.178926
    18  H    4.409469   3.806324   2.564740   2.701048   2.151781
    19  H    6.893862   6.235271   4.938916   4.645643   3.428945
    20  H    8.486880   7.499051   6.191924   5.382092   3.942172
    21  H    8.217326   6.955779   5.813993   4.636116   3.433280
    22  H    6.289155   4.909464   4.007010   2.697079   2.163523
    23  H    3.285393   4.448277   5.647680   6.768246   8.054908
    24  H    3.870859   5.298204   6.132450   7.426308   8.444152
    25  H    3.422865   4.635801   4.932451   6.219532   6.894567
    26  H    2.164130   2.700702   2.546558   3.775149   4.386547
                    6          7          8          9         10
     6  C    0.000000
     7  C    1.386723   0.000000
     8  C    2.429560   1.401601   0.000000
     9  C    2.783479   2.403096   1.397491   0.000000
    10  C    2.412524   2.775484   2.424714   1.390333   0.000000
    11  N    6.406569   7.779534   8.722194   8.446334   7.199480
    12  C    7.349016   8.686440   9.732622   9.574821   8.379501
    13  C    7.341035   8.594114   9.769515   9.811063   8.735112
    14  C    6.190035   7.375296   8.613217   8.788394   7.821931
    15  C    4.936148   6.189929   7.365450   7.458554   6.456735
    16  H    4.918333   6.279062   6.914931   6.346543   4.998290
    17  H    3.473317   4.623848   4.888358   4.074178   2.686491
    18  H    1.090802   2.163668   3.423297   3.874180   3.395108
    19  H    2.144396   1.093654   2.161947   3.397114   3.869115
    20  H    3.419147   2.173756   1.091472   2.169798   3.416036
    21  H    3.877035   3.399174   2.160549   1.093596   2.149195
    22  H    3.405434   3.869106   3.412217   2.154265   1.093627
    23  H    8.369567   9.722336  10.727310  10.496411   9.256097
    24  H    8.334865   9.551615  10.763928  10.856890   9.804788
    25  H    6.439377   7.497063   8.811968   9.151397   8.309927
    26  H    4.029103   5.211735   6.448166   6.675951   5.801481
                   11         12         13         14         15
    11  N    0.000000
    12  C    1.325252   0.000000
    13  C    2.414372   1.394724   0.000000
    14  C    2.793586   2.383698   1.406169   0.000000
    15  C    2.416400   2.714272   2.406961   1.377694   0.000000
    16  H    2.567387   3.890341   4.784808   4.583032   3.460161
    17  H    4.876649   6.159847   6.812332   6.226340   4.879903
    18  H    5.764043   6.580085   6.432642   5.215322   4.031256
    19  H    8.249529   9.033742   8.774015   7.471781   6.411982
    20  H    9.780945  10.763290  10.741807   9.542942   8.334899
    21  H    9.347366  10.516907  10.819192   9.834000   8.490951
    22  H    7.259363   8.511809   9.031346   8.255177   6.877489
    23  H    2.056708   1.099148   2.155248   3.386765   3.813181
    24  H    3.387210   2.169374   1.090431   2.191339   3.408765
    25  H    3.887523   3.388002   2.174565   1.093940   2.144900
    26  H    3.382671   3.802213   3.413477   2.166905   1.089653
                   16         17         18         19         20
    16  H    0.000000
    17  H    2.427686   0.000000
    18  H    4.684760   3.793715   0.000000
    19  H    7.019080   5.581313   2.485803   0.000000
    20  H    8.006110   5.961024   4.327625   2.501409   0.000000
    21  H    7.122897   4.748131   4.967684   4.307517   2.500485
    22  H    4.854084   2.426437   4.297994   4.962740   4.315009
    23  H    4.519095   6.899152   7.638160  10.103746  11.772198
    24  H    5.842730   7.902133   7.388431   9.662966  11.713495
    25  H    5.557653   6.990055   5.390999   7.432968   9.667684
    26  H    3.789095   4.648652   3.049700   5.361579   7.377079
                   21         22         23         24         25
    21  H    0.000000
    22  H    2.469889   0.000000
    23  H   11.403744   9.300257   0.000000
    24  H   11.875975  10.117961   2.493148   0.000000
    25  H   10.225516   8.854892   4.309290   2.540665   0.000000
    26  H    7.739805   6.363157   4.900547   4.340588   2.508705
                   26
    26  H    0.000000
 Stoichiometry    C13H11N2(1-)
 Framework group  C1[X(C13H11N2)]
 Deg. of freedom    72
 Full point group                 C1      NOp   1
 Largest Abelian subgroup         C1      NOp   1
 Largest concise Abelian subgroup C1      NOp   1
                         Standard orientation:                         
 ---------------------------------------------------------------------
 Center     Atomic      Atomic             Coordinates (Angstroms)
 Number     Number       Type             X           Y           Z
 ---------------------------------------------------------------------
      1          6           0        2.427566   -0.447998   -0.000038
      2          6           0        1.188022   -1.157646    0.000117
      3          7           0        0.022997   -0.531366    0.000063
      4          6           0       -1.131949   -1.155443    0.000182
      5          6           0       -2.387922   -0.451122    0.000126
      6          6           0       -2.460473    0.965844   -0.000053
      7          6           0       -3.680545    1.624951   -0.000108
      8          6           0       -4.889517    0.915817    0.000014
      9          6           0       -4.838527   -0.480744    0.000196
     10          6           0       -3.619799   -1.149868    0.000252
     11          7           0        3.579653   -1.169808    0.000067
     12          6           0        4.736202   -0.522747   -0.000025
     13          6           0        4.879863    0.864558   -0.000232
     14          6           0        3.694750    1.621406   -0.000330
     15          6           0        2.475656    0.979653   -0.000227
     16          1           0        1.254166   -2.257734    0.000286
     17          1           0       -1.173519   -2.260250    0.000331
     18          1           0       -1.519539    1.517652   -0.000149
     19          1           0       -3.696048    2.718495   -0.000249
     20          1           0       -5.846481    1.440728   -0.000032
     21          1           0       -5.767051   -1.058495    0.000296
     22          1           0       -3.599897   -2.243314    0.000396
     23          1           0        5.636297   -1.153585    0.000048
     24          1           0        5.866481    1.328914   -0.000303
     25          1           0        3.736919    2.714533   -0.000484
     26          1           0        1.530159    1.521296   -0.000291
 ---------------------------------------------------------------------
 Rotational constants (GHZ):           2.2151660           0.2210131           0.2009625
 Standard basis: def2TZVPP (5D, 7F)
 There are   705 symmetry adapted cartesian basis functions of A   symmetry.
 There are   619 symmetry adapted basis functions of A   symmetry.
   619 basis functions,   952 primitive gaussians,   705 cartesian basis functions
    52 alpha electrons       52 beta electrons
       nuclear repulsion energy       818.0329884643 Hartrees.
 NAtoms=   26 NActive=   26 NUniq=   26 SFac= 1.00D+00 NAtFMM=   60 NAOKFM=F Big=F
 Integral buffers will be    131072 words long.
 Raffenetti 2 integral format.
 Two-electron integral symmetry is turned on.
 Nuclear repulsion after empirical dispersion term =      818.0320278139 Hartrees.
 ------------------------------------------------------------------------------
 Polarizable Continuum Model (PCM)
 =================================
 Model                : PCM.
 Atomic radii         : UFF (Universal Force Field).
 Polarization charges : Total charges.
 Charge compensation  : None.
 Solution method      : On-the-fly selection.
 Cavity type          : Scaled VdW (van der Waals Surface) (Alpha=1.100).
 Cavity algorithm     : GePol (No added spheres)
                        Default sphere list used, NSphG=   26.
                        Lebedev-Laikov grids with approx.  5.0 points / Ang**2.
                        Smoothing algorithm: York/Karplus (Gamma=1.0000).
                        Polarization charges: spherical gaussians, with
                                              point-specific exponents (IZeta= 3).
                        Self-potential: point-specific (ISelfS= 7).
                        Self-field    : sphere-specific E.n sum rule (ISelfD= 2).
 Solvent              : TetraHydroFuran, Eps=   7.425700 Eps(inf)=   1.974025
 ------------------------------------------------------------------------------
 One-electron integrals computed using PRISM.
   1 Symmetry operations used in ECPInt.
 ECPInt:  NShTT=   26796 NPrTT=   75829 LenC2=   22542 LenP2D=   47732.
 LDataN:  DoStor=T MaxTD1= 6 Len=  172
 NBasis=   619 RedAO= T EigKep=  8.40D-06  NBF=   619
 NBsUse=   619 1.00D-06 EigRej= -1.00D+00 NBFU=   619
 Initial guess from the checkpoint file:  "vsa2_crest_conformers-1.chk"
 B after Tr=     0.000000    0.000000    0.000000
         Rot=    1.000000   -0.000000   -0.000000   -0.000000 Ang=   0.00 deg.
 Requested convergence on RMS density matrix=1.00D-08 within 128 cycles.
 Requested convergence on MAX density matrix=1.00D-06.
 Requested convergence on             energy=1.00D-06.
 No special actions if energy rises.
 Inv3:  Mode=1 IEnd=    14022732.
 Iteration    1 A*A^-1 deviation from unit magnitude is 4.00D-15 for   2162.
 Iteration    1 A*A^-1 deviation from orthogonality  is 2.03D-15 for   2149   2051.
 Iteration    1 A^-1*A deviation from unit magnitude is 4.44D-15 for   2162.
 Iteration    1 A^-1*A deviation from orthogonality  is 1.74D-15 for   1596    737.
 Error on total polarization charges =  0.01717
 SCF Done:  E(RM062X) =  -611.561551763     A.U. after    1 cycles
            NFock=  1  Conv=0.25D-08     -V/T= 2.0055
 DoSCS=F DFT=T ScalE2(SS,OS)=  1.000000  1.000000
 Range of M.O.s used for correlation:     1   619
 NBasis=   619 NAE=    52 NBE=    52 NFC=     0 NFV=     0
 NROrb=    619 NOA=    52 NOB=    52 NVA=   567 NVB=   567

 **** Warning!!: The largest alpha MO coefficient is  0.62498987D+02

 NEqPCM:  Using equilibrium solvation (IEInf=0, Eps=   7.4257, EpsInf=   1.9740)
          Differentiating once with respect to magnetic field using GIAOs.
          Electric field/nuclear overlap derivatives assumed to be zero.
   1 Symmetry operations used in ECPInt.
 ECPInt:  NShTT=   26796 NPrTT=   75829 LenC2=   26797 LenP2D=   75829.
 LDataN:  DoStor=T MaxTD1= 7 Len=  274
 FoFJK:  IHMeth= 1 ICntrl=    6127 DoSepK=F KAlg= 0 I1Cent=           0 FoldK=F
 IRaf=         1 NMat=       1 IRICut=       1 DoRegI=T DoRafI=F ISym2E= 0 IDoP0=0 IntGTp=1.
          There are     3 degrees of freedom in the 1st order CPHF.  IDoFFX=0 NUNeed=     3.
      3 vectors produced by pass  0 Test12= 9.83D-13 3.33D-08 XBig12= 5.94D+01 2.27D+00.
 AX will form     3 AO Fock derivatives at one time.
      3 vectors produced by pass  1 Test12= 9.83D-13 3.33D-08 XBig12= 8.99D-01 4.43D-01.
      3 vectors produced by pass  2 Test12= 9.83D-13 3.33D-08 XBig12= 1.37D-02 5.04D-02.
      3 vectors produced by pass  3 Test12= 9.83D-13 3.33D-08 XBig12= 3.00D-04 8.32D-03.
      3 vectors produced by pass  4 Test12= 9.83D-13 3.33D-08 XBig12= 5.32D-06 6.95D-04.
      3 vectors produced by pass  5 Test12= 9.83D-13 3.33D-08 XBig12= 7.73D-08 1.29D-04.
      3 vectors produced by pass  6 Test12= 9.83D-13 3.33D-08 XBig12= 1.27D-09 1.59D-05.
      3 vectors produced by pass  7 Test12= 9.83D-13 3.33D-08 XBig12= 1.73D-11 8.49D-07.
      1 vectors produced by pass  8 Test12= 9.83D-13 3.33D-08 XBig12= 2.10D-13 1.75D-07.
 InvSVY:  IOpt=1 It=  1 EMax= 1.78D-15
 Solved reduced A of dimension    25 with     3 vectors.
 Calculating GIAO nuclear magnetic shielding tensors.
 SCF GIAO Magnetic shielding tensor (ppm):
      1  C    Isotropic =    -0.4618   Anisotropy =   209.1873
   XX=   -86.9630   YX=    -5.7569   ZX=     0.0045
   XY=     8.1742   YY=   -53.4189   ZY=     0.0282
   XZ=     0.0028   YZ=     0.0283   ZZ=   138.9964
   Eigenvalues:   -87.0065   -53.3754   138.9964
      2  C    Isotropic =    63.0538   Anisotropy =    45.0913
   XX=    85.4944   YX=   -20.7626   ZX=     0.0043
   XY=   -19.3616   YY=    10.5522   ZY=     0.0145
   XZ=     0.0034   YZ=     0.0139   ZZ=    93.1147
   Eigenvalues:     5.5196    90.5271    93.1147
      3  N    Isotropic =  -154.1082   Anisotropy =   636.6073
   XX=  -520.2565   YX=     3.6184   ZX=     0.0233
   XY=     8.9993   YY=  -212.3648   ZY=     0.0679
   XZ=     0.0283   YZ=     0.0683   ZZ=   270.2966
   Eigenvalues:  -520.3857  -212.2356   270.2966
      4  C    Isotropic =    60.5788   Anisotropy =    53.2551
   XX=    80.5841   YX=    39.6248   ZX=    -0.0042
   XY=    30.4640   YY=     5.0700   ZY=     0.0112
   XZ=    -0.0051   YZ=     0.0109   ZZ=    96.0821
   Eigenvalues:    -8.6871    94.3412    96.0821
      5  C    Isotropic =    15.8433   Anisotropy =   229.3119
   XX=   -71.4834   YX=    17.3084   ZX=     0.0045
   XY=    15.0926   YY=   -49.7046   ZY=     0.0277
   XZ=     0.0042   YZ=     0.0277   ZZ=   168.7179
   Eigenvalues:   -80.1141   -41.0739   168.7179
      6  C    Isotropic =    47.5600   Anisotropy =   193.7682
   XX=   -30.2792   YX=   -48.5436   ZX=     0.0115
   XY=   -51.0253   YY=    -3.7796   ZY=     0.0245
   XZ=     0.0133   YZ=     0.0223   ZZ=   176.7388
   Eigenvalues:   -68.5468    34.4881   176.7388
      7  C    Isotropic =    36.0919   Anisotropy =   206.3970
   XX=    27.0269   YX=     0.9724   ZX=     0.0035
   XY=    -2.1011   YY=   -92.4411   ZY=     0.0345
   XZ=     0.0039   YZ=     0.0345   ZZ=   173.6899
   Eigenvalues:   -92.4437    27.0295   173.6899
      8  C    Isotropic =    51.6733   Anisotropy =   183.2899
   XX=   -41.3009   YX=    49.2377   ZX=    -0.0013
   XY=    46.2010   YY=    22.4542   ZY=     0.0188
   XZ=    -0.0005   YZ=     0.0189   ZZ=   173.8666
   Eigenvalues:   -66.8108    47.9641   173.8666
      9  C    Isotropic =    36.2818   Anisotropy =   207.6555
   XX=   -59.6130   YX=   -56.0191   ZX=     0.0135
   XY=   -52.7510   YY=    -6.2605   ZY=     0.0252
   XZ=     0.0135   YZ=     0.0252   ZZ=   174.7188
   Eigenvalues:   -93.5119    27.6385   174.7188
     10  C    Isotropic =    45.3901   Anisotropy =   174.6919
   XX=    35.0687   YX=    -4.1181   ZX=     0.0040
   XY=     2.5144   YY=   -60.7499   ZY=     0.0295
   XZ=     0.0036   YZ=     0.0289   ZZ=   161.8514
   Eigenvalues:   -60.7566    35.0754   161.8514
     11  N    Isotropic =   -77.8141   Anisotropy =   524.7736
   XX=  -357.3081   YX=    14.0768   ZX=     0.0004
   XY=   -26.4723   YY=  -148.1691   ZY=     0.0607
   XZ=     0.0038   YZ=     0.0660   ZZ=   272.0350
   Eigenvalues:  -357.4916  -147.9856   272.0350
     12  C    Isotropic =    14.8632   Anisotropy =   187.9863
   XX=   -91.3882   YX=    67.1356   ZX=    -0.0082
   XY=    36.8342   YY=    -4.2097   ZY=     0.0202
   XZ=    -0.0059   YZ=     0.0221   ZZ=   140.1874
   Eigenvalues:  -115.6403    20.0424   140.1874
     13  C    Isotropic =    61.1165   Anisotropy =   164.0697
   XX=   -33.9717   YX=   -43.3258   ZX=     0.0076
   XY=   -60.9927   YY=    46.8249   ZY=     0.0180
   XZ=     0.0088   YZ=     0.0169   ZZ=   170.4963
   Eigenvalues:   -59.5478    72.4009   170.4963
     14  C    Isotropic =    29.7320   Anisotropy =   219.0841
   XX=    15.6436   YX=     4.5603   ZX=     0.0006
   XY=     5.2322   YY=  -102.2357   ZY=     0.0390
   XZ=     0.0007   YZ=     0.0380   ZZ=   175.7880
   Eigenvalues:  -102.4387    15.8466   175.7880
     15  C    Isotropic =    55.5336   Anisotropy =   179.6912
   XX=    -2.4273   YX=    49.6483   ZX=    -0.0046
   XY=    71.2941   YY=    -6.2996   ZY=     0.0238
   XZ=    -0.0027   YZ=     0.0250   ZZ=   175.3278
   Eigenvalues:   -64.8656    56.1387   175.3278
     16  H    Isotropic =    24.2178   Anisotropy =     4.8843
   XX=    27.3533   YX=    -2.5455   ZX=     0.0003
   XY=     0.9856   YY=    22.4383   ZY=     0.0001
   XZ=    -0.0003   YZ=    -0.0001   ZZ=    22.8619
   Eigenvalues:    22.3175    22.8619    27.4740
     17  H    Isotropic =    24.0616   Anisotropy =     5.9390
   XX=    27.8553   YX=     2.9913   ZX=    -0.0006
   XY=    -1.0708   YY=    22.4544   ZY=    -0.0000
   XZ=     0.0001   YZ=    -0.0001   ZZ=    21.8752
   Eigenvalues:    21.8752    22.2887    28.0209
     18  H    Isotropic =    22.7356   Anisotropy =     8.3830
   XX=    25.0046   YX=    -3.6313   ZX=     0.0003
   XY=    -3.3826   YY=    24.6195   ZY=    -0.0007
   XZ=     0.0002   YZ=    -0.0004   ZZ=    18.5827
   Eigenvalues:    18.5827    21.2998    28.3243
     19  H    Isotropic =    23.7968   Anisotropy =     6.1100
   XX=    27.8695   YX=    -0.2068   ZX=    -0.0001
   XY=     0.0831   YY=    22.3290   ZY=    -0.0002
   XZ=    -0.0002   YZ=    -0.0002   ZZ=    21.1920
   Eigenvalues:    21.1920    22.3283    27.8702
     20  H    Isotropic =    24.5087   Anisotropy =     4.7636
   XX=    24.6540   YX=     1.7264   ZX=    -0.0003
   XY=     1.5671   YY=    26.7896   ZY=    -0.0006
   XZ=    -0.0003   YZ=    -0.0006   ZZ=    22.0826
   Eigenvalues:    22.0826    23.7591    27.6845
     21  H    Isotropic =    23.8976   Anisotropy =     5.4528
   XX=    24.0203   YX=    -2.2684   ZX=     0.0002
   XY=    -2.2324   YY=    26.0911   ZY=    -0.0005
   XZ=     0.0002   YZ=    -0.0005   ZZ=    21.5815
   Eigenvalues:    21.5815    22.5785    27.5328
     22  H    Isotropic =    24.2060   Anisotropy =     7.1092
   XX=    28.9039   YX=    -0.0038   ZX=    -0.0002
   XY=    -1.0469   YY=    22.3133   ZY=    -0.0001
   XZ=    -0.0001   YZ=    -0.0002   ZZ=    21.4008
   Eigenvalues:    21.4008    22.2717    28.9455
     23  H    Isotropic =    23.0785   Anisotropy =     6.2206
   XX=    22.3611   YX=     1.4035   ZX=    -0.0001
   XY=     1.9674   YY=    26.6417   ZY=    -0.0009
   XZ=    -0.0004   YZ=    -0.0008   ZZ=    20.2328
   Eigenvalues:    20.2328    21.7771    27.2256
     24  H    Isotropic =    24.9740   Anisotropy =     4.5456
   XX=    24.6972   YX=    -1.6602   ZX=     0.0002
   XY=    -2.5126   YY=    26.6882   ZY=    -0.0004
   XZ=     0.0003   YZ=    -0.0005   ZZ=    23.5367
   Eigenvalues:    23.3810    23.5367    28.0044
     25  H    Isotropic =    23.8572   Anisotropy =     6.0037
   XX=    27.8565   YX=     0.4203   ZX=    -0.0001
   XY=    -0.1454   YY=    21.8444   ZY=     0.0000
   XZ=    -0.0000   YZ=    -0.0000   ZZ=    21.8707
   Eigenvalues:    21.8412    21.8707    27.8597
     26  H    Isotropic =    23.1822   Anisotropy =     9.4995
   XX=    26.1713   YX=     3.8330   ZX=    -0.0007
   XY=     4.6682   YY=    24.1122   ZY=    -0.0008
   XZ=    -0.0007   YZ=    -0.0008   ZZ=    19.2632
   Eigenvalues:    19.2632    20.7683    29.5152
 End of Minotr F.D. properties file   721 does not exist.
 End of Minotr F.D. properties file   722 does not exist.
 End of Minotr F.D. properties file   788 does not exist.

 **********************************************************************

            Population analysis using the SCF Density.

 **********************************************************************

 Orbital symmetries:
       Occupied  (A) (A) (A) (A) (A) (A) (A) (A) (A) (A) (A) (A)
                 (A) (A) (A) (A) (A) (A) (A) (A) (A) (A) (A) (A)
                 (A) (A) (A) (A) (A) (A) (A) (A) (A) (A) (A) (A)
                 (A) (A) (A) (A) (A) (A) (A) (A) (A) (A) (A) (A)
                 (A) (A) (A) (A)
       Virtual   (A) (A) (A) (A) (A) (A) (A) (A) (A) (A) (A) (A)
                 (A) (A) (A) (A) (A) (A) (A) (A) (A) (A) (A) (A)
                 (A) (A) (A) (A) (A) (A) (A) (A) (A) (A) (A) (A)
                 (A) (A) (A) (A) (A) (A) (A) (A) (A) (A) (A) (A)
                 (A) (A) (A) (A) (A) (A) (A) (A) (A) (A) (A) (A)
                 (A) (A) (A) (A) (A) (A) (A) (A) (A) (A) (A) (A)
                 (A) (A) (A) (A) (A) (A) (A) (A) (A) (A) (A) (A)
                 (A) (A) (A) (A) (A) (A) (A) (A) (A) (A) (A) (A)
                 (A) (A) (A) (A) (A) (A) (A) (A) (A) (A) (A) (A)
                 (A) (A) (A) (A) (A) (A) (A) (A) (A) (A) (A) (A)
                 (A) (A) (A) (A) (A) (A) (A) (A) (A) (A) (A) (A)
                 (A) (A) (A) (A) (A) (A) (A) (A) (A) (A) (A) (A)
                 (A) (A) (A) (A) (A) (A) (A) (A) (A) (A) (A) (A)
                 (A) (A) (A) (A) (A) (A) (A) (A) (A) (A) (A) (A)
                 (A) (A) (A) (A) (A) (A) (A) (A) (A) (A) (A) (A)
                 (A) (A) (A) (A) (A) (A) (A) (A) (A) (A) (A) (A)
                 (A) (A) (A) (A) (A) (A) (A) (A) (A) (A) (A) (A)
                 (A) (A) (A) (A) (A) (A) (A) (A) (A) (A) (A) (A)
                 (A) (A) (A) (A) (A) (A) (A) (A) (A) (A) (A) (A)
                 (A) (A) (A) (A) (A) (A) (A) (A) (A) (A) (A) (A)
                 (A) (A) (A) (A) (A) (A) (A) (A) (A) (A) (A) (A)
                 (A) (A) (A) (A) (A) (A) (A) (A) (A) (A) (A) (A)
                 (A) (A) (A) (A) (A) (A) (A) (A) (A) (A) (A) (A)
                 (A) (A) (A) (A) (A) (A) (A) (A) (A) (A) (A) (A)
                 (A) (A) (A) (A) (A) (A) (A) (A) (A) (A) (A) (A)
                 (A) (A) (A) (A) (A) (A) (A) (A) (A) (A) (A) (A)
                 (A) (A) (A) (A) (A) (A) (A) (A) (A) (A) (A) (A)
                 (A) (A) (A) (A) (A) (A) (A) (A) (A) (A) (A) (A)
                 (A) (A) (A) (A) (A) (A) (A) (A) (A) (A) (A) (A)
                 (A) (A) (A) (A) (A) (A) (A) (A) (A) (A) (A) (A)
                 (A) (A) (A) (A) (A) (A) (A) (A) (A) (A) (A) (A)
                 (A) (A) (A) (A) (A) (A) (A) (A) (A) (A) (A) (A)
                 (A) (A) (A) (A) (A) (A) (A) (A) (A) (A) (A) (A)
                 (A) (A) (A) (A) (A) (A) (A) (A) (A) (A) (A) (A)
                 (A) (A) (A) (A) (A) (A) (A) (A) (A) (A) (A) (A)
                 (A) (A) (A) (A) (A) (A) (A) (A) (A) (A) (A) (A)
                 (A) (A) (A) (A) (A) (A) (A) (A) (A) (A) (A) (A)
                 (A) (A) (A) (A) (A) (A) (A) (A) (A) (A) (A) (A)
                 (A) (A) (A) (A) (A) (A) (A) (A) (A) (A) (A) (A)
                 (A) (A) (A) (A) (A) (A) (A) (A) (A) (A) (A) (A)
                 (A) (A) (A) (A) (A) (A) (A) (A) (A) (A) (A) (A)
                 (A) (A) (A) (A) (A) (A) (A) (A) (A) (A) (A) (A)
                 (A) (A) (A) (A) (A) (A) (A) (A) (A) (A) (A) (A)
                 (A) (A) (A) (A) (A) (A) (A) (A) (A) (A) (A) (A)
                 (A) (A) (A) (A) (A) (A) (A) (A) (A) (A) (A) (A)
                 (A) (A) (A) (A) (A) (A) (A) (A) (A) (A) (A) (A)
                 (A) (A) (A) (A) (A) (A) (A) (A) (A) (A) (A) (A)
                 (A) (A) (A)
 The electronic state is 1-A.
 Alpha  occ. eigenvalues --  -14.71135 -14.70632 -10.54525 -10.54412 -10.52719
 Alpha  occ. eigenvalues --  -10.52212 -10.52075 -10.51995 -10.51283 -10.51276
 Alpha  occ. eigenvalues --  -10.50916 -10.50884 -10.50809 -10.50793 -10.49896
 Alpha  occ. eigenvalues --   -1.01726  -0.99045  -0.92906  -0.86544  -0.84421
 Alpha  occ. eigenvalues --   -0.81961  -0.81339  -0.74301  -0.68965  -0.67335
 Alpha  occ. eigenvalues --   -0.65988  -0.63679  -0.59685  -0.55793  -0.55371
 Alpha  occ. eigenvalues --   -0.52758  -0.51280  -0.49394  -0.48746  -0.46859
 Alpha  occ. eigenvalues --   -0.45998  -0.45599  -0.44988  -0.44380  -0.42640
 Alpha  occ. eigenvalues --   -0.42171  -0.39534  -0.39016  -0.37654  -0.36770
 Alpha  occ. eigenvalues --   -0.31942  -0.30765  -0.29367  -0.28643  -0.28100
 Alpha  occ. eigenvalues --   -0.27171  -0.15555
 Alpha virt. eigenvalues --    0.00767   0.03973   0.04576   0.08183   0.10439
 Alpha virt. eigenvalues --    0.11098   0.12309   0.12720   0.13301   0.13596
 Alpha virt. eigenvalues --    0.14613   0.14909   0.15853   0.16055   0.16477
 Alpha virt. eigenvalues --    0.17291   0.19428   0.19955   0.20532   0.22077
 Alpha virt. eigenvalues --    0.22574   0.23275   0.25007   0.25033   0.25345
 Alpha virt. eigenvalues --    0.25581   0.26016   0.26727   0.27514   0.27943
 Alpha virt. eigenvalues --    0.28934   0.29945   0.29996   0.30260   0.31124
 Alpha virt. eigenvalues --    0.31435   0.31576   0.32202   0.34181   0.34639
 Alpha virt. eigenvalues --    0.35363   0.36077   0.36640   0.37261   0.37323
 Alpha virt. eigenvalues --    0.37780   0.38403   0.38759   0.40131   0.40525
 Alpha virt. eigenvalues --    0.40676   0.41363   0.41974   0.43068   0.43380
 Alpha virt. eigenvalues --    0.44018   0.45394   0.45849   0.46396   0.46606
 Alpha virt. eigenvalues --    0.47264   0.48040   0.48178   0.48520   0.50158
 Alpha virt. eigenvalues --    0.50462   0.50867   0.51548   0.51669   0.52448
 Alpha virt. eigenvalues --    0.52993   0.54672   0.54834   0.55684   0.56024
 Alpha virt. eigenvalues --    0.56095   0.56937   0.57833   0.58327   0.59602
 Alpha virt. eigenvalues --    0.59939   0.61514   0.62349   0.64252   0.67200
 Alpha virt. eigenvalues --    0.67691   0.68152   0.68350   0.68792   0.69311
 Alpha virt. eigenvalues --    0.70024   0.71044   0.72264   0.72861   0.73054
 Alpha virt. eigenvalues --    0.73396   0.74980   0.74988   0.75539   0.76104
 Alpha virt. eigenvalues --    0.76799   0.77159   0.78241   0.78515   0.79155
 Alpha virt. eigenvalues --    0.79965   0.80398   0.81315   0.81351   0.82280
 Alpha virt. eigenvalues --    0.83173   0.83813   0.83838   0.84863   0.88597
 Alpha virt. eigenvalues --    0.88638   0.89219   0.89480   0.90523   0.90811
 Alpha virt. eigenvalues --    0.91599   0.93950   0.95882   0.96207   0.96365
 Alpha virt. eigenvalues --    0.98204   1.00935   1.01395   1.02256   1.02309
 Alpha virt. eigenvalues --    1.03301   1.03544   1.04505   1.04879   1.05851
 Alpha virt. eigenvalues --    1.05904   1.06638   1.09348   1.10041   1.12235
 Alpha virt. eigenvalues --    1.12754   1.13417   1.13830   1.14435   1.15644
 Alpha virt. eigenvalues --    1.16638   1.17984   1.19095   1.20330   1.20514
 Alpha virt. eigenvalues --    1.22857   1.23176   1.24065   1.25315   1.26479
 Alpha virt. eigenvalues --    1.26575   1.27243   1.28698   1.29077   1.29755
 Alpha virt. eigenvalues --    1.31959   1.32407   1.33283   1.34595   1.34943
 Alpha virt. eigenvalues --    1.35911   1.36606   1.37784   1.38146   1.38978
 Alpha virt. eigenvalues --    1.39204   1.39438   1.39946   1.41205   1.41487
 Alpha virt. eigenvalues --    1.43116   1.43188   1.44356   1.45608   1.47014
 Alpha virt. eigenvalues --    1.47095   1.47330   1.49723   1.49736   1.51135
 Alpha virt. eigenvalues --    1.52209   1.54049   1.54755   1.55142   1.56900
 Alpha virt. eigenvalues --    1.57996   1.58421   1.58800   1.59294   1.59754
 Alpha virt. eigenvalues --    1.60810   1.61312   1.61754   1.62831   1.65761
 Alpha virt. eigenvalues --    1.65800   1.66949   1.67977   1.70024   1.70184
 Alpha virt. eigenvalues --    1.72848   1.72881   1.73731   1.74012   1.75104
 Alpha virt. eigenvalues --    1.76441   1.77601   1.78475   1.79944   1.80270
 Alpha virt. eigenvalues --    1.80554   1.83315   1.84535   1.84925   1.85927
 Alpha virt. eigenvalues --    1.88385   1.88419   1.90137   1.91834   1.92626
 Alpha virt. eigenvalues --    1.93467   1.95235   1.95987   1.97711   1.99944
 Alpha virt. eigenvalues --    2.00027   2.01722   2.02361   2.02866   2.04879
 Alpha virt. eigenvalues --    2.06433   2.07063   2.09471   2.09847   2.12325
 Alpha virt. eigenvalues --    2.13127   2.15038   2.19384   2.20725   2.25562
 Alpha virt. eigenvalues --    2.27046   2.29684   2.30102   2.32285   2.32693
 Alpha virt. eigenvalues --    2.33213   2.34453   2.35670   2.39702   2.41069
 Alpha virt. eigenvalues --    2.41601   2.41717   2.42878   2.44785   2.46649
 Alpha virt. eigenvalues --    2.47044   2.48011   2.52174   2.52268   2.55035
 Alpha virt. eigenvalues --    2.56373   2.59325   2.59710   2.64912   2.67595
 Alpha virt. eigenvalues --    2.67605   2.68522   2.70736   2.71794   2.71899
 Alpha virt. eigenvalues --    2.73034   2.74004   2.74033   2.75084   2.77027
 Alpha virt. eigenvalues --    2.77730   2.79078   2.79806   2.79971   2.81019
 Alpha virt. eigenvalues --    2.82020   2.82263   2.82708   2.83990   2.85061
 Alpha virt. eigenvalues --    2.86343   2.86929   2.88791   2.90624   2.91471
 Alpha virt. eigenvalues --    2.92944   2.93356   2.94252   2.94578   2.95442
 Alpha virt. eigenvalues --    2.95857   2.97336   2.99870   3.00332   3.01239
 Alpha virt. eigenvalues --    3.01570   3.01599   3.01946   3.02368   3.02717
 Alpha virt. eigenvalues --    3.03664   3.03943   3.05440   3.05526   3.05825
 Alpha virt. eigenvalues --    3.06045   3.06199   3.08494   3.09029   3.09739
 Alpha virt. eigenvalues --    3.10789   3.11741   3.12845   3.13450   3.15022
 Alpha virt. eigenvalues --    3.15397   3.16057   3.17472   3.18120   3.18139
 Alpha virt. eigenvalues --    3.19233   3.19608   3.20710   3.21399   3.22586
 Alpha virt. eigenvalues --    3.23584   3.23660   3.23839   3.24107   3.24795
 Alpha virt. eigenvalues --    3.26129   3.27022   3.27722   3.27971   3.29539
 Alpha virt. eigenvalues --    3.31442   3.32223   3.33113   3.33325   3.33795
 Alpha virt. eigenvalues --    3.34211   3.35002   3.36594   3.37883   3.38504
 Alpha virt. eigenvalues --    3.38524   3.39291   3.40245   3.40440   3.40667
 Alpha virt. eigenvalues --    3.42183   3.42995   3.43557   3.45112   3.45190
 Alpha virt. eigenvalues --    3.47632   3.48624   3.49166   3.50286   3.50302
 Alpha virt. eigenvalues --    3.50703   3.52401   3.53914   3.54164   3.55526
 Alpha virt. eigenvalues --    3.56663   3.57409   3.57546   3.60285   3.60991
 Alpha virt. eigenvalues --    3.61893   3.63687   3.64010   3.65219   3.65790
 Alpha virt. eigenvalues --    3.67526   3.69158   3.69265   3.70435   3.71126
 Alpha virt. eigenvalues --    3.73546   3.74546   3.74810   3.76033   3.77072
 Alpha virt. eigenvalues --    3.77750   3.79798   3.80023   3.80308   3.80936
 Alpha virt. eigenvalues --    3.81814   3.81919   3.82399   3.82921   3.83036
 Alpha virt. eigenvalues --    3.83655   3.85029   3.86478   3.86697   3.87432
 Alpha virt. eigenvalues --    3.87995   3.89315   3.90370   3.90828   3.93101
 Alpha virt. eigenvalues --    3.94226   3.94306   3.95502   3.95678   3.97355
 Alpha virt. eigenvalues --    3.98161   3.99175   4.01570   4.02531   4.03131
 Alpha virt. eigenvalues --    4.05645   4.06122   4.06799   4.07593   4.10929
 Alpha virt. eigenvalues --    4.11957   4.13037   4.13107   4.14766   4.15467
 Alpha virt. eigenvalues --    4.16102   4.16592   4.18160   4.18864   4.19117
 Alpha virt. eigenvalues --    4.20284   4.22531   4.23418   4.24540   4.24653
 Alpha virt. eigenvalues --    4.25711   4.26486   4.27820   4.28332   4.28792
 Alpha virt. eigenvalues --    4.29006   4.29899   4.31869   4.32514   4.34395
 Alpha virt. eigenvalues --    4.35202   4.37365   4.38893   4.41126   4.41822
 Alpha virt. eigenvalues --    4.43755   4.46961   4.47599   4.47844   4.48605
 Alpha virt. eigenvalues --    4.50314   4.55010   4.55194   4.56313   4.57136
 Alpha virt. eigenvalues --    4.59140   4.61027   4.62163   4.63037   4.64412
 Alpha virt. eigenvalues --    4.66715   4.66944   4.69305   4.69928   4.69930
 Alpha virt. eigenvalues --    4.72277   4.73724   4.75247   4.77670   4.77753
 Alpha virt. eigenvalues --    4.80445   4.81454   4.86577   4.87329   4.87330
 Alpha virt. eigenvalues --    4.90785   4.90861   4.91298   4.92533   4.94372
 Alpha virt. eigenvalues --    4.95738   4.96628   4.98877   4.99120   5.01266
 Alpha virt. eigenvalues --    5.01490   5.03448   5.04616   5.05041   5.09264
 Alpha virt. eigenvalues --    5.10724   5.13831   5.14191   5.15724   5.16471
 Alpha virt. eigenvalues --    5.17814   5.20173   5.22081   5.24025   5.24760
 Alpha virt. eigenvalues --    5.25301   5.27527   5.29302   5.30118   5.30721
 Alpha virt. eigenvalues --    5.33055   5.33743   5.36767   5.38293   5.39853
 Alpha virt. eigenvalues --    5.41875   5.42094   5.42888   5.43990   5.49518
 Alpha virt. eigenvalues --    5.52689   5.59412   5.60091   5.62026   5.64162
 Alpha virt. eigenvalues --    5.66476   5.67459   5.72604   5.74631   5.80171
 Alpha virt. eigenvalues --    5.84536   5.89228   5.94002   5.98309   5.98986
 Alpha virt. eigenvalues --    6.02569   6.10207   6.12683   6.16015   6.44634
 Alpha virt. eigenvalues --    6.64332   6.79386  22.84458  23.02925  23.17662
 Alpha virt. eigenvalues --   23.20900  23.22749  23.27726  23.28499  23.38532
 Alpha virt. eigenvalues --   23.41536  23.52250  23.55441  23.76976  24.12722
 Alpha virt. eigenvalues --   32.78458  32.96297
          Condensed to atoms (all electrons):
               1          2          3          4          5          6
     1  C    5.246419   0.351879  -0.173130   0.004009   0.003914  -0.003194
     2  C    0.351879   5.061991   0.591353  -0.208045  -0.000627   0.005063
     3  N   -0.173130   0.591353   6.395979   0.600162  -0.137563   0.025954
     4  C    0.004009  -0.208045   0.600162   5.070501   0.387640  -0.070593
     5  C    0.003914  -0.000627  -0.137563   0.387640   5.181582   0.295840
     6  C   -0.003194   0.005063   0.025954  -0.070593   0.295840   5.175593
     7  C   -0.000087   0.000005   0.001070   0.002344  -0.063851   0.540904
     8  C   -0.000011  -0.000004   0.000182  -0.001005  -0.041098  -0.057504
     9  C    0.000008  -0.000005  -0.000188   0.002744  -0.063681  -0.051981
    10  C   -0.000219   0.000081   0.003516  -0.105963   0.508529  -0.029347
    11  N    0.451541  -0.073837   0.003518   0.000351   0.000038  -0.000009
    12  C   -0.121335   0.004343  -0.001000   0.000035   0.000032  -0.000006
    13  C   -0.017290   0.006602   0.000755   0.000006  -0.000023   0.000008
    14  C   -0.055677   0.002394  -0.000566  -0.000103   0.000013  -0.000012
    15  C    0.276226   0.003640   0.037122   0.002114  -0.001767   0.000417
    16  H   -0.125645   0.447231  -0.055659  -0.007317  -0.005233   0.001863
    17  H   -0.006645  -0.003888  -0.063547   0.433605  -0.092204   0.030430
    18  H   -0.001621   0.001190   0.013720  -0.007459  -0.022993   0.403834
    19  H    0.000002  -0.000001  -0.000044  -0.000229   0.003236  -0.025720
    20  H   -0.000000   0.000000  -0.000001   0.000156   0.000639   0.002475
    21  H    0.000000  -0.000000   0.000010  -0.000162   0.004439  -0.000188
    22  H   -0.000029  -0.000005  -0.000233  -0.002003  -0.029634   0.010742
    23  H    0.003457  -0.001936   0.000010  -0.000003  -0.000000   0.000000
    24  H   -0.004494  -0.000334   0.000002   0.000001  -0.000000   0.000000
    25  H    0.005633   0.000353  -0.000096  -0.000009   0.000007  -0.000003
    26  H   -0.001935  -0.024962   0.012893   0.002581  -0.002553   0.000833
               7          8          9         10         11         12
     1  C   -0.000087  -0.000011   0.000008  -0.000219   0.451541  -0.121335
     2  C    0.000005  -0.000004  -0.000005   0.000081  -0.073837   0.004343
     3  N    0.001070   0.000182  -0.000188   0.003516   0.003518  -0.001000
     4  C    0.002344  -0.001005   0.002744  -0.105963   0.000351   0.000035
     5  C   -0.063851  -0.041098  -0.063681   0.508529   0.000038   0.000032
     6  C    0.540904  -0.057504  -0.051981  -0.029347  -0.000009  -0.000006
     7  C    4.880547   0.508129  -0.065023  -0.036332  -0.000000   0.000000
     8  C    0.508129   4.991165   0.524557  -0.077486   0.000000  -0.000000
     9  C   -0.065023   0.524557   4.879252   0.557595   0.000000   0.000000
    10  C   -0.036332  -0.077486   0.557595   5.007189   0.000000   0.000000
    11  N   -0.000000   0.000000   0.000000   0.000000   6.602412   0.578885
    12  C    0.000000  -0.000000   0.000000   0.000000   0.578885   4.771184
    13  C    0.000000   0.000000  -0.000000   0.000000  -0.117740   0.508274
    14  C    0.000003   0.000000   0.000000  -0.000000  -0.031306  -0.070686
    15  C    0.000010   0.000006  -0.000004   0.000051  -0.085550  -0.024055
    16  H    0.000014   0.000004  -0.000008  -0.000112   0.010130   0.001145
    17  H   -0.001030   0.000452  -0.001065  -0.009704  -0.000258  -0.000044
    18  H   -0.014943   0.001972   0.000655   0.002583  -0.000003  -0.000002
    19  H    0.410017  -0.025583   0.002228   0.000880  -0.000000   0.000000
    20  H   -0.026036   0.416659  -0.026288   0.002771  -0.000000  -0.000000
    21  H    0.003328  -0.027705   0.414402  -0.028978  -0.000000   0.000000
    22  H   -0.000884   0.003451  -0.023134   0.401578   0.000000   0.000000
    23  H   -0.000000   0.000000  -0.000000  -0.000000  -0.024975   0.435725
    24  H    0.000000   0.000000   0.000000  -0.000000   0.008944  -0.021132
    25  H   -0.000000  -0.000000   0.000000   0.000000  -0.001500   0.002966
    26  H   -0.000012   0.000008  -0.000003  -0.000014   0.010568  -0.001573
              13         14         15         16         17         18
     1  C   -0.017290  -0.055677   0.276226  -0.125645  -0.006645  -0.001621
     2  C    0.006602   0.002394   0.003640   0.447231  -0.003888   0.001190
     3  N    0.000755  -0.000566   0.037122  -0.055659  -0.063547   0.013720
     4  C    0.000006  -0.000103   0.002114  -0.007317   0.433605  -0.007459
     5  C   -0.000023   0.000013  -0.001767  -0.005233  -0.092204  -0.022993
     6  C    0.000008  -0.000012   0.000417   0.001863   0.030430   0.403834
     7  C    0.000000   0.000003   0.000010   0.000014  -0.001030  -0.014943
     8  C    0.000000   0.000000   0.000006   0.000004   0.000452   0.001972
     9  C   -0.000000   0.000000  -0.000004  -0.000008  -0.001065   0.000655
    10  C    0.000000  -0.000000   0.000051  -0.000112  -0.009704   0.002583
    11  N   -0.117740  -0.031306  -0.085550   0.010130  -0.000258  -0.000003
    12  C    0.508274  -0.070686  -0.024055   0.001145  -0.000044  -0.000002
    13  C    5.147036   0.464641  -0.078459   0.000925   0.000013   0.000008
    14  C    0.464641   4.900537   0.545973  -0.000734  -0.000018   0.000023
    15  C   -0.078459   0.545973   5.174700   0.032986   0.002029   0.000552
    16  H    0.000925  -0.000734   0.032986   0.642701   0.024779   0.000210
    17  H    0.000013  -0.000018   0.002029   0.024779   0.650515   0.000945
    18  H    0.000008   0.000023   0.000552   0.000210   0.000945   0.478798
    19  H   -0.000000  -0.000000  -0.000000  -0.000000   0.000007  -0.002403
    20  H    0.000000   0.000000   0.000000   0.000000   0.000002  -0.000299
    21  H   -0.000000   0.000000  -0.000000  -0.000000  -0.000015   0.000076
    22  H    0.000000   0.000000   0.000006   0.000099   0.008189  -0.000240
    23  H   -0.075753   0.003082  -0.000469  -0.000269   0.000000  -0.000000
    24  H    0.413743  -0.044869   0.008968  -0.000018   0.000000  -0.000000
    25  H   -0.032639   0.428907  -0.032996   0.000018  -0.000001  -0.000003
    26  H    0.006909  -0.034506   0.395119  -0.000262   0.000281   0.001276
              19         20         21         22         23         24
     1  C    0.000002  -0.000000   0.000000  -0.000029   0.003457  -0.004494
     2  C   -0.000001   0.000000  -0.000000  -0.000005  -0.001936  -0.000334
     3  N   -0.000044  -0.000001   0.000010  -0.000233   0.000010   0.000002
     4  C   -0.000229   0.000156  -0.000162  -0.002003  -0.000003   0.000001
     5  C    0.003236   0.000639   0.004439  -0.029634  -0.000000  -0.000000
     6  C   -0.025720   0.002475  -0.000188   0.010742   0.000000   0.000000
     7  C    0.410017  -0.026036   0.003328  -0.000884  -0.000000   0.000000
     8  C   -0.025583   0.416659  -0.027705   0.003451   0.000000   0.000000
     9  C    0.002228  -0.026288   0.414402  -0.023134  -0.000000   0.000000
    10  C    0.000880   0.002771  -0.028978   0.401578  -0.000000  -0.000000
    11  N   -0.000000  -0.000000  -0.000000   0.000000  -0.024975   0.008944
    12  C    0.000000  -0.000000   0.000000   0.000000   0.435725  -0.021132
    13  C   -0.000000   0.000000  -0.000000   0.000000  -0.075753   0.413743
    14  C   -0.000000   0.000000   0.000000   0.000000   0.003082  -0.044869
    15  C   -0.000000   0.000000  -0.000000   0.000006  -0.000469   0.008968
    16  H   -0.000000   0.000000  -0.000000   0.000099  -0.000269  -0.000018
    17  H    0.000007   0.000002  -0.000015   0.008189   0.000000   0.000000
    18  H   -0.002403  -0.000299   0.000076  -0.000240  -0.000000  -0.000000
    19  H    0.508951  -0.002197  -0.000334   0.000076  -0.000000  -0.000000
    20  H   -0.002197   0.500795  -0.002488  -0.000300   0.000000   0.000000
    21  H   -0.000334  -0.002488   0.510252  -0.003228  -0.000000   0.000000
    22  H    0.000076  -0.000300  -0.003228   0.519619  -0.000000  -0.000000
    23  H   -0.000000   0.000000  -0.000000  -0.000000   0.553631   0.000745
    24  H   -0.000000   0.000000   0.000000  -0.000000   0.000745   0.513321
    25  H    0.000000  -0.000000   0.000000   0.000000  -0.000291  -0.003421
    26  H   -0.000007   0.000000   0.000000  -0.000000   0.000164   0.000169
              25         26
     1  C    0.005633  -0.001935
     2  C    0.000353  -0.024962
     3  N   -0.000096   0.012893
     4  C   -0.000009   0.002581
     5  C    0.000007  -0.002553
     6  C   -0.000003   0.000833
     7  C   -0.000000  -0.000012
     8  C   -0.000000   0.000008
     9  C    0.000000  -0.000003
    10  C    0.000000  -0.000014
    11  N   -0.001500   0.010568
    12  C    0.002966  -0.001573
    13  C   -0.032639   0.006909
    14  C    0.428907  -0.034506
    15  C   -0.032996   0.395119
    16  H    0.000018  -0.000262
    17  H   -0.000001   0.000281
    18  H   -0.000003   0.001276
    19  H    0.000000  -0.000007
    20  H   -0.000000   0.000000
    21  H    0.000000   0.000000
    22  H    0.000000  -0.000000
    23  H   -0.000291   0.000164
    24  H   -0.003421   0.000169
    25  H    0.503889  -0.004614
    26  H   -0.004614   0.507245
 Mulliken charges:
               1
     1  C    0.168225
     2  C   -0.162482
     3  N   -0.254221
     4  C   -0.103358
     5  C    0.075319
     6  C   -0.255399
     7  C   -0.138173
     8  C   -0.216187
     9  C   -0.150061
    10  C   -0.196619
    11  N   -0.331209
    12  C   -0.062757
    13  C   -0.227015
    14  C   -0.107096
    15  C   -0.256619
    16  H    0.033152
    17  H    0.027171
    18  H    0.144125
    19  H    0.131123
    20  H    0.134111
    21  H    0.130590
    22  H    0.115930
    23  H    0.106883
    24  H    0.128374
    25  H    0.133798
    26  H    0.132396
 Sum of Mulliken charges =  -1.00000
 Mulliken charges with hydrogens summed into heavy atoms:
               1
     1  C    0.168225
     2  C   -0.129330
     3  N   -0.254221
     4  C   -0.076187
     5  C    0.075319
     6  C   -0.111274
     7  C   -0.007051
     8  C   -0.082076
     9  C   -0.019471
    10  C   -0.080689
    11  N   -0.331209
    12  C    0.044126
    13  C   -0.098641
    14  C    0.026702
    15  C   -0.124223
 Electronic spatial extent (au):  <R**2>=           5119.5802
 Charge=             -1.0000 electrons
 Dipole moment (field-independent basis, Debye):
    X=             -2.2025    Y=              2.9782    Z=             -0.0003  Tot=              3.7041
 Quadrupole moment (field-independent basis, Debye-Ang):
   XX=           -124.2255   YY=            -91.7202   ZZ=            -99.7304
   XY=              9.2312   XZ=             -0.0005   YZ=             -0.0014
 Traceless Quadrupole moment (field-independent basis, Debye-Ang):
   XX=            -19.0001   YY=             13.5051   ZZ=              5.4949
   XY=              9.2312   XZ=             -0.0005   YZ=             -0.0014
 Octapole moment (field-independent basis, Debye-Ang**2):
  XXX=            -11.6256  YYY=             18.2375  ZZZ=             -0.0001  XYY=            -17.1473
  XXY=             21.4015  XXZ=             -0.0018  XZZ=              5.2263  YZZ=             -0.8960
  YYZ=             -0.0022  XYZ=              0.0023
 Hexadecapole moment (field-independent basis, Debye-Ang**3):
 XXXX=          -6624.8564 YYYY=           -760.7994 ZZZZ=           -120.4093 XXXY=             98.7899
 XXXZ=              0.0707 YYYX=             47.9954 YYYZ=              0.0330 ZZZX=              0.0983
 ZZZY=              0.0519 XXYY=          -1210.1189 XXZZ=          -1239.5057 YYZZ=           -168.1780
 XXYZ=             -0.0066 YYXZ=              0.0206 ZZXY=             -3.0972
 N-N= 8.180320278139D+02 E-N=-3.071600679572D+03  KE= 6.081973497456D+02
 Unable to Open any file for archive entry.
 1\1\GINC-NOTCH079\SP\RM062X\def2TZVPP\C13H11N2(1-)\U6067110\31-Jan-202
 6\0\\#N Guess=Read Geom=Check Integral(Ultrafine) Density NMR M062X Em
 piricalDispersion=GD3 def2TZVPP SCRF(IEFPCM,solvent=THF)\\vsa2_crest_c
 onformers-1\\-1,1\C,0,2.4121733264,-0.4328341371,0.0001224934\C,0,1.17
 46812803,-1.1460556694,0.0002776814\N,0,0.0078548536,-0.52313907,0.000
 2234741\C,0,-1.1452858436,-1.150545678,0.000342311\C,0,-2.4032861697,-
 0.4498516835,0.0002862627\C,0,-2.4799243128,0.966898888,0.0001072812\C
 ,0,-3.7018931956,1.6224837228,0.0000530718\C,0,-4.9088144178,0.9098643
 86,0.0001743167\C,0,-4.8537952099,-0.4865430997,0.0003565669\C,0,-3.63
 31418444,-1.1521488519,0.0004122774\N,0,3.5663376254,-1.1513172704,0.0
 002281075\C,0,4.7210151412,-0.5009231056,0.0001356042\C,0,4.8606735162
 ,0.8867911953,-0.0000711445\C,0,3.6733819769,1.6402171783,-0.000168936
 2\C,0,2.4561440733,0.9949487632,-0.0000658295\H,0,1.2439991258,-2.2459
 485551,0.0004468792\H,0,-1.1836685293,-2.2554685891,0.0004918947\H,0,-
 1.5405864079,1.5214196567,0.0000115823\H,0,-3.7205513998,2.7159782431,
 -0.0000886156\H,0,-5.8672881303,1.432012485,0.0001287346\H,0,-5.780648
 0851,-1.0669706772,0.0004566214\H,0,-3.6100853417,-2.2455323974,0.0005
 563124\H,0,5.6229263359,-1.1291611909,0.0002082066\H,0,5.845947328,1.3
 539917056,-0.0001419722\H,0,3.7123960775,2.7334612307,-0.0003232821\H,
 0,1.5090882276,1.5338625207,-0.0001298993\\Version=ES64L-G16RevC.01\St
 ate=1-A\HF=-611.5615518\RMSD=2.497e-09\Dipole=-0.8698896,1.1692144,-0.
 0001301\Quadrupole=-14.1654878,10.0801374,4.0853503,6.7933695,-0.00035
 6,-0.0010103\PG=C01 [X(C13H11N2)]\\@
 The archive entry for this job was punched.


 WHEN YOU'VE SEEN ONE NUCLEAR WAR YOU'VE SEEN THEM ALL.
 Job cpu time:       0 days  1 hours 18 minutes  9.2 seconds.
 Elapsed time:       0 days  0 hours  2 minutes 45.6 seconds.
 File lengths (MBytes):  RWF=    310 Int=      0 D2E=      0 Chk=     36 Scr=      2
 Normal termination of Gaussian 16 at Sat Jan 31 06:27:46 2026.
