85
Energy = 0.00 kcal/mol
O    -1.301818 2.223038 -0.600812
C    -2.425226 2.097769 -1.038796
O    -3.196116 3.147166 -1.383145
C    -2.638436 4.454695 -1.277548
C    -3.348969 5.345163 -2.271554
C    -3.168444 0.850255 -1.228375
N    -2.506531 -0.342401 -1.198715
C    -3.210698 -1.392291 -1.519807
C    -2.775845 -2.780782 -1.353079
C    -3.642503 -3.798496 -1.782316
C    -3.304206 -5.140356 -1.628451
C    -2.089700 -5.490990 -1.036746
C    -1.225602 -4.486920 -0.593671
C    -1.564428 -3.144655 -0.740803
H    -2.779779 4.815707 -0.246600
H    -1.559209 4.399149 -1.477507
H    -2.980342 6.375798 -2.185228
H    -4.431577 5.344241 -2.084983
H    -3.169877 4.993719 -3.297054
H    -1.023968 -0.322454 -0.561184
H    -4.024451 0.950115 -1.905212
H    -4.169922 -1.253898 -2.036122
H    -4.597147 -3.527627 -2.239731
H    -3.989936 -5.917726 -1.969339
H    -1.818449 -6.541056 -0.916935
H    -0.275919 -4.753150 -0.125600
H    -0.881238 -2.375956 -0.380879
H    1.763360 4.746879 2.863921
C    1.624928 3.713711 2.561162
H    3.472895 2.544487 3.015709
H    -0.863763 4.774405 2.570630
C    2.459686 2.642402 2.637510
H    -1.582891 3.430184 1.606419
C    -0.721406 4.095906 1.722541
N    0.452262 3.269883 1.989095
H    6.476915 1.719448 -1.230552
H    5.887724 2.572556 -3.506413
C    5.455441 1.613046 -1.600596
C    5.123299 2.098910 -2.888845
N    1.773802 1.568110 2.105130
H    -0.559577 4.668007 0.802095
C    0.559347 1.973283 1.714565
C    4.502615 1.010749 -0.809905
C    3.835268 1.970011 -3.355776
H    2.444940 0.167273 4.210130
H    4.770100 0.639495 0.181542
H    3.562855 2.337475 -4.348039
C    2.291682 0.230729 2.046672
C    2.626913 -0.377233 3.282716
C    3.161259 0.866424 -1.264726
C    2.830642 1.355854 -2.562824
H    -0.220416 1.357255 1.258949
C    2.144809 0.256911 -0.466197
C    1.494097 1.205217 -3.032924
C    2.479294 -0.391875 0.832142
C    3.167095 -1.635235 3.292698
H    1.246703 1.559215 -4.036141
H    3.430716 -2.114547 4.236753
C    0.529281 0.635173 -2.250189
C    0.843411 0.168174 -0.937039
C    3.026293 -1.719563 0.838237
C    3.381331 -2.336328 2.073959
O    -0.086995 -0.365678 -0.146204
H    -0.494941 0.526005 -2.607999
C    3.234012 -2.443004 -0.370042
C    3.942359 -3.642902 2.065638
H    2.952233 -1.982990 -1.317895
H    4.212065 -4.102506 3.018803
C    3.777280 -3.706008 -0.346521
C    4.140526 -4.312139 0.882175
H    3.929659 -4.248128 -1.280949
H    4.575309 -5.312751 0.884762
H    -2.245075 -2.391487 2.555552
C    -4.201203 -1.515121 1.132524
C    -5.001529 -0.582754 0.374526
C    -3.263879 0.573101 1.402095
C    -2.056090 -1.313865 2.476588
C    -4.408559 0.682067 0.432796
N    -3.117689 -0.755822 1.676821
O    -2.554010 1.462739 1.849840
O    -4.334583 -2.704472 1.364105
H    -5.930051 -0.866309 -0.113683
H    -2.041366 -0.866039 3.481085
H    -4.906429 1.643330 0.300927
H    -1.080555 -1.147532 1.993976
