          85
 
O      -1.3111543      2.2140628     -0.6107334
C      -2.4422134      2.1002560     -1.0224826
O      -3.2000880      3.1460100     -1.3815548
C      -2.6378839      4.4548880     -1.2803339
C      -3.3496077      5.3448219     -2.2729081
C      -3.2255186      0.8433593     -1.1519954
N      -2.5074132     -0.3431418     -1.1890852
C      -3.2091248     -1.3879104     -1.5158864
C      -2.7740636     -2.7806512     -1.3547875
C      -3.6423923     -3.7956519     -1.7836047
C      -3.3051308     -5.1381651     -1.6291683
C      -2.0907078     -5.4882218     -1.0373294
C      -1.2253439     -4.4855019     -0.5938898
C      -1.5639787     -3.1430538     -0.7412702
H      -2.7775212      4.8136462     -0.2488409
H      -1.5597462      4.3947866     -1.4834665
H      -2.9791824      6.3747150     -2.1865508
H      -4.4316997      5.3452393     -2.0839477
H      -3.1723027      4.9936879     -3.2987436
H      -1.0275383     -0.3221843     -0.5610711
H      -4.0201294      0.9514789     -1.9095157
H      -4.1699348     -1.2519987     -2.0294638
H      -4.5973125     -3.5237483     -2.2396796
H      -3.9912383     -5.9155344     -1.9688863
H      -1.8202956     -6.5384879     -0.9168670
H      -0.2765141     -4.7528029     -0.1249924
H      -0.8821878     -2.3737539     -0.3798652
H       1.7635923      4.7470232      2.8633258
C       1.6251349      3.7137632      2.5608906
H       3.4732457      2.5447039      3.0152132
H      -0.8623664      4.7761860      2.5692210
C       2.4599386      2.6424767      2.6372320
H      -1.5837866      3.4294324      1.6124550
C      -0.7214481      4.0953664      1.7227822
N       0.4523095      3.2696815      1.9893682
H       6.4767295      1.7192631     -1.2304744
H       5.8876982      2.5724330     -3.5063660
C       5.4552465      1.6129781     -1.6005246
C       5.1231968      2.0989042     -2.8888099
N       1.7740175      1.5680616      2.1052967
H      -0.5608945      4.6656733      0.8009305
C       0.5593946      1.9728925      1.7153974
C       4.5023979      1.0107401     -0.8098451
C       3.8351842      1.9701344     -3.3557367
H       2.4449606      0.1671640      4.2102398
H       4.7699028      0.6394287      0.1815700
H       3.5628278      2.3375429     -4.3480363
C       2.2917765      0.2306115      2.0467877
C       2.6269946     -0.3772907      3.2828151
C       3.1609510      0.8664695     -1.2646431
C       2.8304859      1.3560249     -2.5627720
H      -0.2208405      1.3547742      1.2635561
C       2.1444815      0.2569215     -0.4661388
C       1.4941661      1.2048546     -3.0332194
C       2.4791633     -0.3918872      0.8321827
C       3.1671190     -1.6353014      3.2927152
H       1.2470726      1.5580987     -4.0367864
H       3.4306717     -2.1146884      4.2367447
C       0.5295299      0.6339334     -2.2508082
C       0.8428876      0.1676933     -0.9370916
C       3.0262396     -1.7195511      0.8382158
C       3.3813169     -2.3363214      2.0739356
O      -0.0880765     -0.3653203     -0.1467529
H      -0.4941547      0.5217400     -2.6091896
C       3.2339900     -2.4429944     -0.3700595
C       3.9423495     -3.6428929      2.0656116
H       2.9522915     -1.9829873     -1.3179434
H       4.2120304     -4.1024928      3.0187826
C       3.7772754     -3.7059959     -0.3465360
C       4.1405176     -4.3121356      0.8821563
H       3.9297069     -4.2480984     -1.2809672
H       4.5753005     -5.3127460      0.8847476
H      -2.2567191     -2.3919687      2.5543655
C      -4.2136595     -1.5112670      1.1236148
C      -4.9827864     -0.5910951      0.3532454
C      -3.2473408      0.5707135      1.3970549
C      -2.0624574     -1.3147375      2.4811436
C      -4.3396034      0.6857654      0.3571125
N      -3.1188908     -0.7500182      1.6804166
O      -2.5458952      1.4650844      1.8532331
O      -4.3370114     -2.7037334      1.3712939
H      -5.9140791     -0.8612046     -0.1369356
H      -2.0469434     -0.8720093      3.4881228
H      -4.8808944      1.6405720      0.3169671
H      -1.0845648     -1.1495290      2.0021177
