85
Energy = 0.00 kcal/mol
O    0.793217 -1.191300 1.065746
C    1.687416 -0.637597 1.681088
O    2.077338 -1.062139 2.887907
C    1.457268 -2.256833 3.361332
C    1.980737 -2.539141 4.749441
C    2.492082 0.478689 1.174595
N    2.040657 1.018936 0.001463
C    2.637895 2.083366 -0.414572
C    2.392717 2.645102 -1.746716
C    1.588703 1.968387 -2.677187
C    1.313373 2.543243 -3.913153
C    1.846718 3.793544 -4.247848
C    2.673081 4.456224 -3.338533
C    2.947985 3.880842 -2.097684
H    0.364709 -2.117443 3.360256
H    1.687214 -3.069726 2.656039
H    1.509558 -3.447363 5.148315
H    1.753316 -1.702326 5.424560
H    3.068786 -2.688525 4.732704
H    0.287084 -0.450995 -0.580347
H    2.908521 1.133851 1.953890
H    3.296307 2.667419 0.247752
H    1.167549 1.001456 -2.394886
H    0.675653 2.014034 -4.624742
H    1.623354 4.244802 -5.216722
H    3.104644 5.425586 -3.595772
H    3.591827 4.399608 -1.382347
H    -2.642591 -4.732952 1.176043
C    -2.687897 -3.700889 1.509529
H    -0.848113 -2.592106 0.842800
H    -5.566396 -3.349915 3.260908
C    -1.816668 -2.669332 1.331987
H    -4.585665 -4.848522 3.264294
C    -4.910830 -3.991432 2.664404
N    -3.742814 -3.218795 2.256554
H    -6.608612 0.747588 0.948388
H    -7.597615 -0.217175 -1.135821
C    -5.954022 0.332124 0.179689
C    -6.515296 -0.208848 -1.001434
N    -2.363369 -1.577750 1.977693
H    -5.443197 -4.338666 1.771808
C    -3.526388 -1.935066 2.525384
C    -4.589869 0.357043 0.362246
C    -5.686619 -0.706713 -1.980138
H    -1.404858 -0.332196 4.117399
H    -4.176902 0.804008 1.268790
H    -6.102185 -1.113243 -2.905378
C    -1.793380 -0.257994 1.985033
C    -1.293006 0.252148 3.202782
C    -3.704244 -0.165424 -0.624424
C    -4.276206 -0.695047 -1.818525
H    -4.189150 -1.282570 3.088873
C    -2.277963 -0.148975 -0.461800
C    -3.406624 -1.185409 -2.834415
C    -1.693601 0.417561 0.785523
C    -0.647887 1.463052 3.202449
H    -3.841378 -1.587813 -3.751634
H    -0.239383 1.869358 4.129537
C    -2.051339 -1.153594 -2.670847
C    -1.463650 -0.636269 -1.477223
C    -1.041568 1.689748 0.782736
C    -0.494394 2.200946 1.997869
O    -0.130039 -0.667810 -1.446989
H    -1.372905 -1.527780 -3.438390
C    -0.921644 2.461890 -0.405562
C    0.185850 3.449500 1.977714
H    -1.337277 2.072687 -1.336023
H    0.613758 3.828245 2.908432
C    -0.274321 3.671705 -0.389432
C    0.295212 4.166291 0.810580
H    -0.165745 4.240469 -1.314721
H    0.824574 5.120324 0.801281
H    3.756244 -2.320629 -3.004018
C    4.705289 0.384296 -1.498971
C    4.968610 0.622067 -0.110494
C    3.699199 -1.324072 -0.313544
C    3.326760 -1.335625 -2.763609
C    4.252236 -0.318253 0.660767
N    3.886237 -0.791633 -1.555734
O    3.149760 -2.384916 -0.069518
O    5.070605 0.952107 -2.520299
H    5.590676 1.441106 0.240317
H    3.556673 -0.632064 -3.573121
H    4.540496 -0.678843 1.650776
H    2.236251 -1.436742 -2.657763
