          85
 
O       0.7895539     -1.2046074      1.0608580
C       1.6719506     -0.6288027      1.6816894
O       2.0729635     -1.0604563      2.8881983
C       1.4585618     -2.2566713      3.3590778
C       1.9810008     -2.5387104      4.7482572
C       2.4242102      0.5078686      1.1942990
N       2.0371772      1.0235522      0.0075581
C       2.6425472      2.0865163     -0.4148581
C       2.3968411      2.6434113     -1.7459379
C       1.5899941      1.9682899     -2.6769209
C       1.3136762      2.5434233     -3.9124974
C       1.8461983      3.7937881     -4.2489405
C       2.6728424      4.4561307     -3.3394620
C       2.9495789      3.8807364     -2.0993711
H       0.3649194     -2.1230047      3.3583827
H       1.6902216     -3.0706468      2.6554263
H       1.5107790     -3.4473978      5.1474134
H       1.7522301     -1.7018479      5.4229794
H       3.0693709     -2.6866090      4.7329975
H       0.2839392     -0.4758895     -0.5695656
H       2.9230809      1.1311039      1.9525767
H       3.2900399      2.6764913      0.2533734
H       1.1665806      1.0024752     -2.3937990
H       0.6744068      2.0141042     -4.6228250
H       1.6216409      4.2450510     -5.2175101
H       3.1033440      5.4262420     -3.5962058
H       3.5929996      4.4008305     -1.3845140
H      -2.6423093     -4.7329749      1.1764949
C      -2.6876861     -3.7008130      1.5096379
H      -0.8460250     -2.5907980      0.8462672
H      -5.5664066     -3.3499212      3.2608210
C      -1.8162476     -2.6692819      1.3323889
H      -4.5857209     -4.8485069      3.2642364
C      -4.9107973     -3.9913972      2.6643024
N      -3.7428667     -3.2187906      2.2564563
H      -6.6086083      0.7476280      0.9483761
H      -7.5976660     -0.2172212     -1.1358298
C      -5.9540184      0.3321529      0.1796702
C      -6.5153377     -0.2088637     -1.0014557
N      -2.3633407     -1.5777598      1.9778634
H      -5.4432857     -4.3387108      1.7717957
C      -3.5264426     -1.9349974      2.5252403
C      -4.5898901      0.3570236      0.3622139
C      -5.6866421     -0.7066940     -1.9801506
H      -1.4038674     -0.3326114      4.1172487
H      -4.1767846      0.8038188      1.2687705
H      -6.1022227     -1.1132044     -2.9054097
C      -1.7935983     -0.2578379      1.9852535
C      -1.2930107      0.2522885      3.2028648
C      -3.7041362     -0.1655026     -0.6244193
C      -4.2762007     -0.6949905     -1.8186088
H      -4.1894190     -1.2824533      3.0883932
C      -2.2779766     -0.1492791     -0.4615753
C      -3.4066196     -1.1850044     -2.8346221
C      -1.6936609      0.4175226      0.7857553
C      -0.6489070      1.4636564      3.2025796
H      -3.8413933     -1.5873047     -3.7518967
H      -0.2397707      1.8697164      4.1295048
C      -2.0513044     -1.1532404     -2.6708959
C      -1.4633777     -0.6370283     -1.4767984
C      -1.0421284      1.6900268      0.7829623
C      -0.4958552      2.2015819      1.9981567
O      -0.1300902     -0.6687355     -1.4451522
H      -1.3729212     -1.5276107     -3.4384165
C      -0.9214812      2.4618029     -0.4055482
C       0.1851568      3.4496847      1.9777167
H      -1.3359239      2.0718232     -1.3362005
H       0.6135135      3.8281386      2.9083740
C      -0.2743441      3.6717011     -0.3895593
C       0.2949888      4.1662441      0.8105307
H      -0.1646009      4.2397695     -1.3151437
H       0.8252698      5.1197889      0.8009887
H       3.7501832     -2.3205522     -3.0005997
C       4.6975499      0.3777760     -1.5099795
C       4.9804705      0.6135372     -0.1081598
C       3.7117901     -1.3250892     -0.3098729
C       3.3206092     -1.3348969     -2.7641276
C       4.3286173     -0.3468947      0.6462488
N       3.8848608     -0.7872286     -1.5596482
O       3.1539121     -2.3807046     -0.0690931
O       5.0671405      0.9552837     -2.5184926
H       5.6166117      1.4260324      0.2329294
H       3.5472702     -0.6351694     -3.5777187
H       4.5531008     -0.6616537      1.6680001
H       2.2306853     -1.4344263     -2.6541299
