85
Energy = 0.00 kcal/mol
O    0.794373 -2.400173 -0.044904
C    1.685761 -2.542103 -0.859150
O    1.635923 -3.462300 -1.828164
C    0.459616 -4.274566 -1.890580
C    0.700824 -5.379569 -2.890700
C    2.911092 -1.729744 -0.967380
N    3.218802 -0.913760 0.089733
C    4.390746 -0.373850 0.069129
C    4.769949 0.701615 0.991879
C    3.843527 1.244033 1.896182
C    4.218619 2.262762 2.764937
C    5.523960 2.763620 2.734754
C    6.445954 2.246815 1.824449
C    6.068230 1.225275 0.954533
H    0.252286 -4.671873 -0.886272
H    -0.382325 -3.629657 -2.178112
H    -0.187114 -6.023338 -2.946023
H    1.559200 -5.995798 -2.590131
H    0.895144 -4.968455 -3.890542
H    -0.837010 -0.791735 -1.764729
H    3.723253 -2.236760 -1.505599
H    5.170015 -0.720144 -0.627803
H    2.826660 0.847149 1.889305
H    3.495486 2.675391 3.471743
H    5.818388 3.561791 3.417183
H    7.462643 2.642562 1.793943
H    6.786927 0.822683 0.237377
H    0.119896 0.811443 4.579000
C    -0.135278 0.783382 3.524558
H    -1.584362 2.418659 3.065775
H    2.089353 -0.820794 3.677889
C    -0.965439 1.571537 2.785984
H    1.776724 -1.584098 2.080925
C    1.320938 -1.231844 3.014031
N    0.384409 -0.164579 2.667783
H    -5.304031 0.690822 3.637413
H    -5.871046 -1.674683 4.222585
C    -4.897175 -0.127420 3.040846
C    -5.221962 -1.465168 3.371229
N    -0.934065 1.082104 1.493130
H    0.782539 -2.043976 3.517249
C    -0.105977 0.030272 1.448683
C    -4.084575 0.153966 1.966199
C    -4.725807 -2.492674 2.603717
H    -0.876839 3.606711 0.737198
H    -3.865681 1.194208 1.718675
H    -4.979176 -3.529745 2.835714
C    -1.656219 1.613797 0.375135
C    -1.511507 2.992641 0.096258
C    -3.544600 -0.889183 1.158815
C    -3.886613 -2.233890 1.488143
H    0.153031 -0.566150 0.571614
C    -2.710363 -0.631840 0.018051
C    -3.398542 -3.288635 0.664387
C    -2.455067 0.779430 -0.380872
C    -2.148353 3.530555 -0.990846
H    -3.663889 -4.318726 0.910591
H    -2.035216 4.590087 -1.227155
C    -2.611229 -3.022902 -0.421664
C    -2.249247 -1.686728 -0.756324
C    -3.124562 1.335097 -1.519377
C    -2.958202 2.717439 -1.830110
O    -1.505413 -1.518143 -1.863079
H    -2.240185 -3.825696 -1.058020
C    -3.976173 0.548607 -2.346338
C    -3.628229 3.262507 -2.959922
H    -4.119112 -0.506324 -2.111324
H    -3.488851 4.320434 -3.189873
C    -4.614662 1.106436 -3.427121
C    -4.438421 2.477519 -3.742240
H    -5.264346 0.489346 -4.048680
H    -4.952929 2.905265 -4.604344
H    1.373486 2.289611 0.413062
C    3.600430 1.550533 -1.925862
C    3.692263 0.330406 -2.648737
C    1.569843 0.476407 -1.704637
C    1.762258 2.654839 -0.550433
C    2.517832 -0.434054 -2.433632
N    2.269268 1.566368 -1.340513
O    0.376500 0.294498 -1.444652
O    4.354126 2.501946 -1.772502
H    4.576597 0.040462 -3.209026
H    0.956513 3.191010 -1.072588
H    2.092455 -1.142696 -3.148492
H    2.601658 3.335394 -0.364484
