          85
 
O       0.8080063     -2.4014770     -0.0451803
C       1.6808385     -2.5336238     -0.8758941
O       1.6363801     -3.4612241     -1.8296235
C       0.4598253     -4.2774382     -1.8894048
C       0.7009678     -5.3803787     -2.8908799
C       2.8933212     -1.6700094     -1.0378669
N       3.2146161     -0.9026581      0.0850846
C       4.3856532     -0.3773308      0.0720413
C       4.7709828      0.6993243      0.9975928
C       3.8434063      1.2426239      1.8978742
C       4.2181061      2.2627870      2.7652727
C       5.5237305      2.7624338      2.7332844
C       6.4460804      2.2456901      1.8236077
C       6.0680951      1.2219977      0.9555608
H       0.2569319     -4.6742277     -0.8843269
H      -0.3809694     -3.6302939     -2.1748539
H      -0.1871342     -6.0238433     -2.9456173
H       1.5593896     -5.9969933     -2.5915185
H       0.8939130     -4.9678157     -3.8902742
H      -0.8372157     -0.7876335     -1.7647348
H       3.7182384     -2.2408377     -1.5018030
H       5.1613230     -0.7099681     -0.6357438
H       2.8262097      0.8467375      1.8886922
H       3.4953340      2.6775593      3.4709533
H       5.8182454      3.5618473      3.4143040
H       7.4620527      2.6427651      1.7917501
H       6.7853958      0.8195430      0.2370673
H       0.1196370      0.8111995      4.5791883
C      -0.1354441      0.7833804      3.5247175
H      -1.5847033      2.4185996      3.0662715
H       2.0876662     -0.8208507      3.6805173
C      -0.9657326      1.5715829      2.7862600
H       1.7802027     -1.5815474      2.0820074
C       1.3210910     -1.2314399      3.0142352
N       0.3844521     -0.1643723      2.6677790
H      -5.3040456      0.6907864      3.6373693
H      -5.8710538     -1.6747104      4.2225558
C      -4.8971530     -0.1274477      3.0408231
C      -5.2219402     -1.4652159      3.3712205
N      -0.9343989      1.0825152      1.4934133
H       0.7825894     -2.0449393      3.5151346
C      -0.1060952      0.0312371      1.4488384
C      -4.0846106      0.1539687      1.9661680
C      -4.7257955     -2.4927239      2.6037450
H      -0.8763407      3.6067469      0.7367782
H      -3.8658071      1.1941975      1.7185590
H      -4.9791879     -3.5297893      2.8357281
C      -1.6564597      1.6141148      0.3751883
C      -1.5114398      2.9927783      0.0962011
C      -3.5446455     -0.8891988      1.1587470
C      -3.8865956     -2.2339065      1.4881502
H       0.1528659     -0.5607417      0.5697814
C      -2.7103770     -0.6316641      0.0180562
C      -3.3985730     -3.2885786      0.6643541
C      -2.4552636      0.7796716     -0.3807124
C      -2.1483347      3.5305880     -0.9909195
H      -3.6641022     -4.3186859      0.9102747
H      -2.0349311      4.5900307     -1.2274688
C      -2.6113175     -3.0227235     -0.4217853
C      -2.2490559     -1.6864930     -0.7564459
C      -3.1246269      1.3351287     -1.5192911
C      -2.9582211      2.7174647     -1.8300664
O      -1.5035212     -1.5180302     -1.8621489
H      -2.2413258     -3.8258028     -1.0584446
C      -3.9761897      0.5486171     -2.3463170
C      -3.6282265      3.2624924     -2.9599223
H      -4.1192093     -0.5063251     -2.1113657
H      -3.4887464      4.3203889     -3.1899363
C      -4.6146492      1.1064217     -3.4271170
C      -4.4384114      2.4775154     -3.7422373
H      -5.2642812      0.4893157     -4.0487159
H      -4.9528567      2.9052441     -4.6043859
H       1.3728386      2.2919794      0.4070551
C       3.6085686      1.5415073     -1.9387861
C       3.7004809      0.3276626     -2.6351178
C       1.5695146      0.4719066     -1.6888159
C       1.7626524      2.6547192     -0.5574141
C       2.5299964     -0.4889749     -2.3572529
N       2.2642455      1.5628074     -1.3458807
O       0.3707142      0.2941919     -1.4410420
O       4.3526380      2.5069074     -1.7748719
H       4.5894736      0.0192188     -3.1786783
H       0.9576890      3.1947542     -1.0772098
H       2.0732016     -1.1193163     -3.1371372
H       2.6065595      3.3309757     -0.3750441
