85
Energy = 0.00 kcal/mol
O    -1.624347 2.346613 -1.050290
C    -2.783507 2.080030 -1.300639
O    -3.730965 3.021681 -1.492143
C    -3.408137 4.372141 -1.164989
C    -3.783418 4.651102 0.278722
C    -3.382151 0.750424 -1.359268
N    -2.590505 -0.354742 -1.395132
C    -3.213597 -1.497344 -1.511384
C    -2.602399 -2.818408 -1.345280
C    -3.331979 -3.943119 -1.763453
C    -2.825213 -5.229087 -1.595557
C    -1.579482 -5.415543 -0.993687
C    -0.852706 -4.305743 -0.557422
C    -1.358112 -3.019356 -0.723302
H    -2.339080 4.543576 -1.349917
H    -3.984958 4.995978 -1.859362
H    -3.457221 5.658456 0.575919
H    -3.311302 3.906022 0.936279
H    -4.872487 4.585235 0.411049
H    -1.112350 -0.140629 -0.879388
H    -4.367099 0.711095 -1.837096
H    -4.251394 -1.499025 -1.871939
H    -4.310111 -3.800167 -2.229213
H    -3.405343 -6.089934 -1.932557
H    -1.181225 -6.422389 -0.856781
H    0.116922 -4.440069 -0.072460
H    -0.788897 -2.165767 -0.356775
H    1.824194 4.811062 2.812345
C    1.648124 3.798586 2.462413
H    3.293376 2.464680 3.168637
H    -0.064560 5.283458 0.851669
C    2.364413 2.655267 2.639846
H    -1.129118 4.626128 2.143576
C    -0.509893 4.375648 1.274253
N    0.557411 3.471019 1.685602
H    6.581367 1.327225 -1.074416
H    6.214145 2.301838 -3.346649
C    5.575964 1.345134 -1.498708
C    5.369303 1.897512 -2.787367
N    1.691537 1.655585 1.962459
H    -1.109436 3.851622 0.521862
C    0.596858 2.176153 1.392969
C    4.522022 0.829839 -0.779303
C    4.104286 1.917845 -3.328205
H    2.099970 0.186007 4.094470
H    4.690988 0.404636 0.212262
H    3.931650 2.337630 -4.321866
C    2.081251 0.276439 1.924335
C    2.258902 -0.374110 3.171906
C    3.200986 0.843361 -1.311221
C    2.995172 1.394286 -2.611248
H    -0.162858 1.633555 0.822723
C    2.083723 0.322928 -0.593679
C    1.678831 1.395900 -3.157283
C    2.254709 -0.365606 0.716408
C    2.604525 -1.698418 3.199859
H    1.526938 1.808625 -4.157052
H    2.740935 -2.212313 4.152823
C    0.614857 0.900510 -2.452258
C    0.811617 0.360054 -1.146897
C    2.589555 -1.760906 0.741060
C    2.770078 -2.426583 1.989273
O    -0.192983 -0.105676 -0.411559
H    -0.395613 0.913332 -2.861204
C    2.742345 -2.507857 -0.460878
C    3.106871 -3.807863 1.999532
H    2.592474 -2.007480 -1.418428
H    3.244608 -4.305993 2.961202
C    3.065952 -3.843367 -0.418926
C    3.253793 -4.501262 0.822364
H    3.175055 -4.403742 -1.348592
H    3.512380 -5.560989 0.838644
H    -1.251221 -0.130659 3.251287
C    -3.561138 -1.519417 1.360893
C    -4.607900 -0.795533 0.673512
C    -2.957051 0.701733 1.337209
C    -1.368359 -0.867135 2.442556
C    -4.232801 0.542867 0.560552
N    -2.545832 -0.562341 1.667657
O    -2.370835 1.732749 1.632532
O    -3.469668 -2.685395 1.698737
H    -5.544489 -1.260396 0.378463
H    -0.467696 -0.857353 1.810902
H    -4.898337 1.400220 0.455226
H    -1.501617 -1.869510 2.867684
