102
Energy = 0.00 kcal/mol
O    1.244390 3.441538 3.575249
C    1.374676 2.505791 2.802901
O    1.826926 2.701492 1.526485
C    2.348243 3.989578 1.224168
C    3.840455 4.034780 1.493944
C    1.058241 1.137073 3.109729
N    1.647308 0.109544 2.458771
C    1.521576 -1.121840 2.848597
C    2.275161 -2.214672 2.239769
C    2.028236 -3.546977 2.625838
C    2.810379 -4.593167 2.142552
C    3.856370 -4.342051 1.251598
C    4.096354 -3.029112 0.834639
C    3.321085 -1.980649 1.322167
H    2.131346 4.164247 0.161272
H    1.819408 4.743001 1.821635
H    4.359716 3.250644 0.923049
H    4.037450 3.877517 2.564303
H    4.258046 5.009385 1.202661
H    -0.657953 0.854059 2.240781
H    0.627040 0.981357 4.109799
H    0.884330 -1.382532 3.711164
H    1.220322 -3.752848 3.332216
H    2.606150 -5.615078 2.468423
H    4.477546 -5.160738 0.885056
H    4.912022 -2.817289 0.139653
H    3.547139 -0.950042 1.044472
H    2.310001 -0.472819 -3.373976
C    1.652384 -0.752667 -2.556552
H    0.131208 -2.216707 -3.284742
C    0.585831 -1.598283 -2.516556
N    1.796430 -0.227288 -1.287456
H    -3.270289 -0.319367 -4.911474
H    -3.277848 2.161270 -5.211496
C    -3.031051 0.327517 -4.066102
C    -3.038303 1.734169 -4.236915
N    0.102687 -1.563624 -1.222416
C    0.850919 -0.724705 -0.500827
C    -2.731890 -0.230450 -2.844736
C    -2.752679 2.554105 -3.171718
H    -2.741746 -1.315465 -2.726338
H    -2.768170 3.640481 -3.286106
C    -1.058462 -2.218699 -0.695407
C    -1.119794 -3.645285 -0.685699
C    -2.410240 0.593554 -1.728883
C    -2.433591 2.007449 -1.898713
H    0.716224 -0.487372 0.558289
C    -2.054632 0.064620 -0.449975
C    -2.153865 2.836779 -0.782681
C    -2.080029 -1.412291 -0.236999
C    -2.241875 -4.225034 -0.136408
H    -2.247961 3.917716 -0.906538
H    -2.318365 -5.313810 -0.102967
C    -1.803822 2.331693 0.451700
C    -1.719785 0.904301 0.599999
C    -3.228436 -2.027790 0.352857
C    -3.297277 -3.449340 0.411589
O    -1.345429 0.321808 1.752329
C    -4.307104 -1.262136 0.875438
C    -4.435096 -4.064357 1.003768
H    -4.259692 -0.173714 0.826428
H    -4.477710 -5.154170 1.049822
C    -5.394212 -1.884835 1.440779
C    -5.458940 -3.299529 1.507880
H    -6.213498 -1.287381 1.842895
H    -6.327893 -3.778204 1.961602
C    2.743255 0.810967 -0.879695
H    -0.167249 4.083305 -2.509952
C    0.867596 3.772325 -2.353838
C    1.919477 4.613694 -2.724773
H    1.709462 5.587385 -3.169768
C    3.237583 4.200349 -2.531968
H    4.063602 4.848535 -2.828692
C    3.504077 2.951330 -1.967688
H    4.537204 2.627778 -1.820724
C    2.454140 2.116424 -1.580185
C    1.133467 2.530446 -1.782033
H    0.302022 1.886127 -1.482728
H    3.760272 0.457274 -1.095044
H    2.617864 0.937767 0.209708
C    -1.593697 3.261937 1.591734
C    -0.972316 4.500857 1.378377
H    -0.538955 4.721454 0.399750
C    -0.887982 5.440015 2.402936
H    -0.395968 6.397183 2.219715
C    -1.409419 5.151230 3.662728
H    -1.338810 5.884351 4.467659
C    -2.004377 3.911925 3.894816
H    -2.408254 3.673185 4.880282
C    -2.095724 2.972773 2.870432
H    -2.583903 2.014867 3.057004
H    1.610436 -3.576578 -0.264973
C    1.298049 -4.315020 -1.008429
C    2.258899 -5.103126 -1.639990
H    3.311673 -4.960717 -1.393399
C    1.880184 -6.070274 -2.571836
H    2.637743 -6.681804 -3.064322
C    0.529500 -6.253681 -2.868147
H    0.224280 -7.006845 -3.596206
C    -0.434070 -5.463973 -2.242632
H    -1.489412 -5.593843 -2.491206
C    -0.060651 -4.483319 -1.311425
