102
Energy = 0.00 kcal/mol
O    -0.437500 -2.315968 -1.807584
C    -1.338502 -3.110948 -2.132772
O    -1.027839 -4.237793 -2.856869
C    0.255561 -4.314739 -3.441461
C    0.341122 -3.468357 -4.702140
C    -2.714838 -3.057063 -1.860648
N    -3.263114 -2.113489 -1.056246
C    -4.528650 -2.157908 -0.770328
C    -5.239848 -1.242166 0.115397
C    -4.708100 -0.027963 0.596089
C    -5.449526 0.782537 1.452412
C    -6.736773 0.414984 1.853553
C    -7.279529 -0.781218 1.379469
C    -6.542833 -1.593805 0.521803
H    1.020816 -4.027336 -2.703309
H    0.409559 -5.374526 -3.684363
H    0.139564 -2.411502 -4.472693
H    -0.406186 -3.804891 -5.434109
H    1.337684 -3.544677 -5.161196
H    -2.168656 -1.095417 -0.338974
H    -3.340141 -3.869278 -2.245753
H    -5.131934 -2.988180 -1.173722
H    -3.709173 0.284917 0.294440
H    -5.013673 1.720345 1.804659
H    -7.311884 1.056701 2.522981
H    -8.284934 -1.083306 1.679915
H    -6.974538 -2.529995 0.158512
H    4.308604 0.553861 -2.634084
C    3.285956 0.709948 -2.304650
H    3.027408 2.820972 -1.623977
C    2.664481 1.814613 -1.809290
C    2.578733 -1.683790 -2.744882
N    2.343344 -0.295017 -2.337449
H    4.208724 2.386983 2.580533
H    4.786537 0.207173 3.657730
C    3.521781 1.543287 2.494807
C    3.849387 0.309051 3.108592
N    1.359414 1.450045 -1.546229
C    1.187096 0.163815 -1.867168
C    2.345469 1.690098 1.795745
C    2.981213 -0.753375 3.013922
H    2.099455 2.648267 1.332415
H    3.217653 -1.708892 3.487910
C    0.350286 2.299549 -0.986813
C    -0.035974 3.467117 -1.712642
C    1.436136 0.601964 1.667200
C    1.761069 -0.634324 2.297894
H    0.268800 -0.431470 -1.765365
C    0.226144 0.692823 0.920323
C    0.837879 -1.711466 2.208831
C    -0.184645 1.949657 0.233389
C    -0.961649 4.301887 -1.129876
H    1.051259 -2.634102 2.755327
H    -1.286677 5.198663 -1.661796
C    -0.327771 -1.620910 1.486108
C    -0.612818 -0.405578 0.775932
C    -1.178739 2.803391 0.809553
C    -1.553307 3.996018 0.125574
O    -1.656891 -0.263006 -0.029898
C    -1.802960 2.493395 2.048691
C    -2.539634 4.844020 0.701029
H    -1.517671 1.578164 2.569396
H    -2.825149 5.753475 0.168638
C    -2.752570 3.333648 2.580955
C    -3.126500 4.519749 1.900219
H    -3.225818 3.084975 3.532115
H    -3.884980 5.173992 2.332840
H    1.612044 -2.494428 -0.374011
C    2.664252 -2.775453 -0.494344
C    3.327095 -2.449975 -1.683541
C    4.660658 -2.822533 -1.862624
H    5.174290 -2.574002 -2.794451
C    5.333987 -3.517893 -0.856015
H    6.374803 -3.811589 -1.001197
C    4.675427 -3.834955 0.331516
H    5.201216 -4.376979 1.119235
C    3.340612 -3.462840 0.510777
H    2.823864 -3.714896 1.438582
H    3.123411 -1.664464 -3.696853
H    1.581077 -2.112869 -2.889685
H    -0.066614 1.818089 -3.870326
C    0.423231 2.772327 -4.078533
C    0.511232 3.743333 -3.069126
C    1.105412 4.976315 -3.363252
H    1.181824 5.735925 -2.582549
C    1.613665 5.228606 -4.638458
H    2.080124 6.191111 -4.853869
C    1.532435 4.253352 -5.631980
H    1.933467 4.449976 -6.627456
C    0.931372 3.024784 -5.349921
H    0.850486 2.261889 -6.125733
H    -1.680072 -5.995812 0.581188
C    -1.933660 -5.018910 0.996437
C    -3.207025 -4.791483 1.521761
H    -3.947678 -5.593120 1.525904
C    -3.531905 -3.537681 2.041114
H    -4.528106 -3.349598 2.446592
C    -2.592613 -2.510849 2.016652
C    -1.315612 -2.729916 1.483568
C    -0.987820 -3.995343 0.985483
H    -0.000055 -4.160261 0.548548
H    -2.853953 -1.521018 2.400170
