115
Energy = 0.00 kcal/mol
O    -0.440764 -2.529354 -1.659698
C    -1.324811 -3.116365 -2.236815
O    -1.116581 -4.113060 -3.101827
C    0.211994 -4.318438 -3.589104
C    0.436837 -3.424586 -4.794867
C    -2.795631 -2.808251 -2.178991
N    -3.195014 -2.102570 -1.011252
C    -4.456284 -2.163629 -0.776821
C    -5.186984 -1.281828 0.145493
C    -4.730920 0.005599 0.463550
C    -5.471958 0.812908 1.323569
C    -6.674757 0.352455 1.863978
C    -7.145763 -0.919678 1.532589
C    -6.408854 -1.726660 0.669083
H    0.927350 -4.123827 -2.777023
H    0.271052 -5.380138 -3.855047
H    0.211089 -2.377034 -4.538963
H    -0.227575 -3.723888 -5.616964
H    1.476510 -3.496786 -5.143923
H    -2.181315 -1.094240 -0.298636
H    -3.351724 -3.747666 -2.333198
H    -5.062387 -2.949145 -1.252704
H    -3.801230 0.373481 0.029169
H    -5.110793 1.814714 1.563905
H    -7.253320 0.991357 2.533411
H    -8.092035 -1.278228 1.940765
H    -6.777537 -2.719058 0.398294
H    4.317666 0.522439 -2.575946
C    3.292681 0.689600 -2.259336
H    3.049635 2.795684 -1.558778
C    2.677628 1.795901 -1.760857
C    2.561478 -1.689103 -2.733747
N    2.337038 -0.304399 -2.315874
H    4.214488 2.375027 2.597655
H    4.773786 0.200363 3.694332
C    3.521453 1.535777 2.517558
C    3.838571 0.304116 3.142428
N    1.364387 1.442698 -1.519415
C    1.181042 0.164917 -1.858073
C    2.347642 1.685046 1.815660
C    2.962920 -0.752629 3.055344
H    2.109163 2.640565 1.343150
H    3.192351 -1.705013 3.539040
C    0.349040 2.291898 -0.972834
C    -0.049579 3.441644 -1.717505
C    1.429809 0.602922 1.694952
C    1.744166 -0.631362 2.336410
H    0.232997 -0.381153 -1.817646
C    0.221903 0.699147 0.946581
C    0.812146 -1.702433 2.256115
C    -0.187893 1.951155 0.249355
C    -0.987668 4.273852 -1.151295
H    1.018698 -2.623008 2.808878
H    -1.323771 5.156540 -1.699692
C    -0.352882 -1.606659 1.532045
C    -0.624517 -0.394768 0.809496
C    -1.200529 2.796647 0.805414
C    -1.585016 3.975638 0.103049
O    -1.666040 -0.254836 0.002110
C    -1.839620 2.489048 2.037732
C    -2.592274 4.813894 0.655996
H    -1.549305 1.583138 2.571642
H    -2.884151 5.713168 0.110241
C    -2.809682 3.319178 2.547622
C    -3.191169 4.493224 1.850315
H    -3.294259 3.071646 3.493347
H    -3.965172 5.140383 2.265448
H    -2.362596 1.655144 -1.562871
C    -4.718297 -0.156562 -3.027272
C    -4.596110 -1.477982 -3.466979
C    -2.437066 -0.557506 -3.251318
C    -3.031470 1.685008 -2.437802
C    -3.173678 -1.880041 -3.459893
N    -3.348905 0.346229 -2.856650
O    -1.231679 -0.359653 -3.392858
O    -5.663272 0.602061 -2.799174
H    -5.443155 -2.123198 -3.684307
H    -3.978539 2.170784 -2.170635
H    -2.782119 -2.414005 -4.339025
H    -2.539179 2.255687 -3.241896
H    1.658190 -2.387265 -0.290409
C    2.683493 -2.731854 -0.457933
C    3.310106 -2.468496 -1.681654
C    4.614808 -2.912230 -1.904313
H    5.102150 -2.707327 -2.860337
C    5.293136 -3.619457 -0.909251
H    6.312144 -3.965890 -1.088041
C    4.668322 -3.879261 0.309723
H    5.197864 -4.430329 1.088339
C    3.363047 -3.434108 0.534133
H    2.872016 -3.638109 1.487209
H    3.101529 -1.670981 -3.688594
H    1.562087 -2.110759 -2.886988
H    -0.080416 1.738145 -3.834342
C    0.401150 2.694294 -4.066724
C    0.487743 3.692166 -3.081879
C    1.064900 4.926225 -3.403654
H    1.135238 5.702176 -2.638523
C    1.562608 5.159069 -4.686240
H    2.016387 6.122396 -4.924301
C    1.485299 4.161465 -5.657778
H    1.877569 4.342426 -6.659721
C    0.899755 2.932293 -5.346043
H    0.823029 2.154661 -6.107582
H    -1.820930 -5.930793 0.536883
C    -2.044936 -4.960883 0.984654
C    -3.296250 -4.727054 1.558767
H    -4.051654 -5.514655 1.561968
C    -3.575565 -3.486799 2.133631
H    -4.550688 -3.296919 2.585826
C    -2.615908 -2.476912 2.113399
C    -1.359943 -2.701984 1.536266
C    -1.077311 -3.956728 0.983558
H    -0.101993 -4.129407 0.523500
H    -2.844247 -1.496363 2.538796
