115
Energy = 0.00 kcal/mol
O    -1.982850 0.990591 -0.881754
C    -2.006236 1.946142 -1.616700
O    -3.121624 2.454434 -2.137511
C    -4.361806 1.906420 -1.671912
C    -5.444232 2.271704 -2.658268
C    -0.788713 2.731018 -2.062664
N    0.396424 2.064778 -1.657825
C    1.495921 2.479272 -2.162768
C    2.780175 2.181849 -1.504628
C    2.791711 1.761974 -0.164488
C    4.003860 1.544395 0.485000
C    5.209960 1.727520 -0.197533
C    5.202427 2.149147 -1.528766
C    3.991041 2.388548 -2.175927
H    -4.253027 0.817236 -1.566363
H    -4.552854 2.323013 -0.672981
H    -6.409243 1.877128 -2.310342
H    -5.230695 1.836903 -3.644966
H    -5.531351 3.361732 -2.765231
H    -0.988331 1.653020 1.377884
H    -0.867052 2.951562 -3.143232
H    1.535311 3.077835 -3.086512
H    1.839568 1.628501 0.357896
H    4.008093 1.235134 1.532154
H    6.158871 1.550341 0.312658
H    6.144020 2.300442 -2.059417
H    3.978297 2.736231 -3.211744
H    0.027533 -3.493955 -3.115662
C    0.337660 -2.830643 -2.313900
H    1.778714 -3.883804 -0.973669
C    1.189223 -3.021780 -1.270867
C    -1.110421 -0.936444 -3.111600
N    -0.130527 -1.536034 -2.215248
H    -0.087838 -6.057970 1.882967
H    -2.579673 -6.233486 1.969200
C    -0.693216 -5.150003 1.895186
C    -2.105216 -5.251320 1.947352
N    1.212340 -1.838194 -0.558930
C    0.396527 -0.952722 -1.139528
C    -0.076148 -3.920007 1.867687
C    -2.869139 -4.108447 1.983162
H    1.013960 -3.863862 1.842317
H    -3.958684 -4.169395 2.041328
C    1.951398 -1.596408 0.644436
C    3.372295 -1.729570 0.615910
C    -0.841881 -2.718385 1.876785
C    -2.260074 -2.824939 1.950864
H    0.205151 0.082959 -0.819125
C    -0.252883 -1.416688 1.808624
C    -3.028068 -1.634453 2.020412
C    1.235255 -1.313623 1.788358
C    4.047671 -1.565990 1.803941
H    -4.107462 -1.724259 2.164067
H    5.136496 -1.653911 1.816677
C    -2.465777 -0.378849 1.959688
C    -1.039136 -0.273342 1.798111
C    1.955984 -1.077350 3.002592
C    3.374205 -1.218301 3.005088
O    -0.411489 0.900371 1.670164
C    1.295589 -0.735157 4.214720
C    4.090915 -0.999885 4.214344
H    0.209829 -0.631413 4.215737
H    5.177661 -1.105024 4.205652
C    2.015237 -0.530426 5.368262
C    3.426784 -0.662194 5.369082
H    1.498727 -0.262072 6.290993
H    3.983979 -0.493665 6.292048
H    0.669224 4.661317 2.608673
C    1.273805 4.994457 -0.517200
C    0.406400 4.991851 -1.611659
C    -0.617966 3.821908 0.156714
C    1.150012 4.019481 1.854011
C    -0.782707 4.161627 -1.320091
N    0.593099 4.234466 0.544268
O    -1.442066 3.217938 0.848570
O    2.383388 5.479067 -0.279733
H    0.625586 5.487263 -2.554463
H    2.216412 4.268444 1.793165
H    -1.774155 4.601893 -1.508129
H    1.021147 2.969251 2.154340
H    -6.268251 -2.026838 -1.908783
C    -5.224190 -1.815057 -2.145611
C    -4.880131 -1.270510 -3.384555
H    -5.654561 -1.051202 -4.121808
C    -3.543128 -1.009756 -3.685021
H    -3.276913 -0.588377 -4.658013
C    -2.539423 -1.282437 -2.748849
C    -2.887570 -1.821140 -1.507758
H    -2.124751 -2.019484 -0.749708
C    -4.224267 -2.090842 -1.212327
H    -4.480479 -2.518939 -0.241320
H    -0.875389 -1.277498 -4.128368
H    -0.944002 0.148653 -3.082004
H    3.240544 -0.377508 -1.745708
C    3.923003 -1.228922 -1.784898
C    4.109249 -2.021704 -0.643356
C    5.021358 -3.084083 -0.694024
H    5.167766 -3.709461 0.189687
C    5.726307 -3.355160 -1.867488
H    6.428187 -4.190421 -1.896752
C    5.530688 -2.564619 -3.000504
H    6.080455 -2.777858 -3.918819
C    4.631082 -1.497729 -2.953682
H    4.484807 -0.863627 -3.829910
H    -3.516776 3.764199 3.836267
C    -3.831427 2.939465 3.194503
C    -5.097480 2.951342 2.609261
H    -5.778534 3.784689 2.790630
C    -5.487436 1.891962 1.787544
H    -6.473339 1.896678 1.318070
C    -4.612108 0.834908 1.548755
H    -4.905324 0.021887 0.880023
C    -3.338259 0.811008 2.135299
C    -2.960629 1.876406 2.964425
H    -1.973706 1.878172 3.430746
