115
Energy = 0.00 kcal/mol
O    -0.624032 -2.820609 -2.019310
C    -1.503761 -3.249821 -2.718595
O    -1.306406 -4.013645 -3.798287
C    0.033827 -4.190351 -4.265829
C    0.396107 -3.065638 -5.216139
C    -2.982700 -2.994975 -2.556103
N    -3.402052 -2.603457 -1.242039
C    -4.776278 -2.178471 -1.422228
C    -5.359128 -1.354414 -0.299486
C    -4.648600 -0.289174 0.267933
C    -5.229221 0.491202 1.265869
C    -6.527151 0.226216 1.706752
C    -7.243724 -0.827436 1.139816
C    -6.660051 -1.609947 0.141647
H    0.709777 -4.245558 -3.400947
H    0.043965 -5.162651 -4.772072
H    0.240450 -2.089047 -4.733594
H    -0.240401 -3.106146 -6.110516
H    1.444681 -3.155757 -5.532494
H    -2.776205 -1.888949 -0.834810
H    -3.496499 -3.923216 -2.857849
H    -5.395930 -3.083577 -1.532523
H    -3.622370 -0.080834 -0.049601
H    -4.655996 1.314649 1.698370
H    -6.977886 0.840003 2.488819
H    -8.259744 -1.043062 1.475743
H    -7.222585 -2.436797 -0.298719
H    4.105109 0.300287 -2.808102
C    3.093648 0.504989 -2.470983
H    2.902035 2.658499 -1.915142
C    2.510730 1.652557 -2.033121
C    2.346882 -1.894073 -2.711197
N    2.125220 -0.477221 -2.421637
H    3.880395 2.516768 2.789294
H    4.347012 0.408067 4.053881
C    3.210901 1.660932 2.680592
C    3.476121 0.470149 3.399627
N    1.203264 1.338208 -1.722238
C    0.990005 0.040370 -1.956715
C    2.118467 1.753999 1.846760
C    2.620400 -0.602779 3.268630
H    1.926733 2.680611 1.299954
H    2.802160 -1.527404 3.823643
C    0.237946 2.236815 -1.165022
C    -0.141287 3.386447 -1.922035
C    1.225961 0.653569 1.677039
C    1.488174 -0.538532 2.420562
H    0.035689 -0.483624 -1.807204
C    0.106535 0.693652 0.806339
C    0.570838 -1.623738 2.299876
C    -0.269504 1.936567 0.081297
C    -1.037132 4.260812 -1.349245
H    0.726271 -2.509987 2.923924
H    -1.364619 5.139991 -1.908620
C    -0.504440 -1.585919 1.450682
C    -0.740358 -0.422957 0.592068
C    -1.233984 2.835234 0.644373
C    -1.606837 4.008913 -0.072072
O    -1.638907 -0.419683 -0.309350
C    -1.837516 2.577322 1.905747
C    -2.573750 4.887215 0.491297
H    -1.550153 1.673165 2.444554
H    -2.860327 5.780121 -0.067924
C    -2.766232 3.446846 2.427632
C    -3.140780 4.612409 1.712513
H    -3.222686 3.238276 3.396678
H    -3.883254 5.290572 2.135845
H    -2.240041 1.596031 -1.715843
C    -4.784794 0.022842 -2.740280
C    -4.844191 -1.478951 -2.862069
C    -2.660463 -0.611362 -3.368829
C    -2.947403 1.712091 -2.549267
C    -3.507924 -1.873145 -3.502018
N    -3.452737 0.400518 -2.885698
O    -1.489372 -0.490145 -3.657887
O    -5.685588 0.788991 -2.514752
H    -5.744833 -1.783680 -3.406070
H    -3.799153 2.329915 -2.243043
H    -3.556468 -2.176030 -4.556298
H    -2.447092 2.168466 -3.414133
H    1.555780 -2.225660 -0.149212
C    2.548492 -2.649925 -0.330954
C    3.119827 -2.569478 -1.605903
C    4.384315 -3.114010 -1.836026
H    4.831413 -3.049325 -2.830718
C    5.075085 -3.743023 -0.797690
H    6.062826 -4.167837 -0.982665
C    4.503981 -3.822715 0.471699
H    5.044136 -4.312202 1.283524
C    3.240053 -3.273251 0.704549
H    2.788601 -3.330287 1.696502
H    2.870029 -1.964364 -3.673110
H    1.349445 -2.338962 -2.797711
H    -0.193102 1.610197 -3.991030
C    0.250613 2.572367 -4.265107
C    0.350504 3.598245 -3.310294
C    0.884890 4.834823 -3.693163
H    0.970008 5.633793 -2.953691
C    1.320644 5.042917 -5.002199
H    1.740348 6.009351 -5.286155
C    1.225432 4.017588 -5.942927
H    1.567881 4.179134 -6.966150
C    0.686279 2.784262 -5.571239
H    0.596775 1.982045 -6.305526
H    -1.740654 -6.006431 0.568704
C    -2.035906 -5.023466 0.941761
C    -3.330755 -4.815845 1.417339
H    -4.051283 -5.636149 1.419453
C    -3.701255 -3.555587 1.887247
H    -4.715612 -3.377685 2.250927
C    -2.778922 -2.512038 1.881793
C    -1.475232 -2.711006 1.411647
C    -1.113160 -3.977161 0.939703
H    -0.103511 -4.132193 0.552679
H    -3.068518 -1.522472 2.241042
