115
Energy = 0.00 kcal/mol
O    -2.069744 1.344265 -0.515671
C    -1.957120 1.994131 -1.525388
O    -2.967128 2.301407 -2.319328
C    -4.269789 1.953036 -1.819891
C    -5.286377 2.301129 -2.878207
C    -0.635674 2.528226 -2.028034
N    0.455255 1.980214 -1.279719
C    1.615971 2.705290 -1.733898
C    2.869762 2.345088 -0.978113
C    2.799789 1.822671 0.317841
C    3.971115 1.483279 0.995219
C    5.214344 1.638667 0.380988
C    5.285760 2.150797 -0.915261
C    4.117652 2.506864 -1.586963
H    -4.272913 0.880687 -1.573962
H    -4.422949 2.510066 -0.883714
H    -6.291595 2.036066 -2.522097
H    -5.087916 1.739361 -3.801761
H    -5.267513 3.376417 -3.104334
H    -0.733423 1.193105 0.750119
H    -0.590629 2.337933 -3.122131
H    1.813875 2.533339 -2.813937
H    1.823646 1.658194 0.780539
H    3.909727 1.081112 2.008028
H    6.127691 1.355460 0.908131
H    6.253256 2.267428 -1.407025
H    4.172575 2.897335 -2.606576
H    -0.290900 -3.764206 -3.004822
C    0.133199 -3.064099 -2.290540
H    1.461124 -4.154998 -0.871037
C    0.982714 -3.256687 -1.251193
C    -1.114787 -1.084417 -3.187004
N    -0.144626 -1.705737 -2.310222
H    -0.173311 -6.208914 2.197294
H    -2.656496 -6.281559 2.471952
C    -0.745409 -5.279697 2.183384
C    -2.153736 -5.322300 2.339461
N    1.171265 -2.006868 -0.676874
C    0.481395 -1.027813 -1.319231
C    -0.094250 -4.079364 2.017738
C    -2.878390 -4.154576 2.330662
H    0.991172 -4.058751 1.904511
H    -3.963073 -4.171113 2.460390
C    1.951029 -1.781317 0.497277
C    3.374137 -1.888525 0.422316
C    -0.820172 -2.854444 1.986197
C    -2.233526 -2.899392 2.153498
H    0.526630 0.940615 -1.280082
C    -0.190651 -1.587348 1.782850
C    -2.961393 -1.682704 2.164439
C    1.297339 -1.528254 1.684967
C    4.103409 -1.768933 1.582800
H    -4.033299 -1.726987 2.370855
H    5.192818 -1.840748 1.542378
C    -2.361232 -0.457871 1.963753
C    -0.940729 -0.426705 1.731020
C    2.066319 -1.324177 2.876612
C    3.482072 -1.470128 2.822657
O    -0.294454 0.738403 1.503383
C    1.460171 -0.991947 4.120467
C    4.248663 -1.270303 4.004072
H    0.376099 -0.881360 4.169111
H    5.333779 -1.379166 3.948702
C    2.227100 -0.796506 5.245065
C    3.636555 -0.936485 5.188064
H    1.749550 -0.528335 6.188683
H    4.232619 -0.776798 6.087732
H    -0.993643 5.987872 1.767297
C    1.286419 4.760758 -0.248458
C    1.105709 4.183009 -1.641342
C    -0.995141 4.463533 -0.465688
C    -0.163504 5.272087 1.726955
C    -0.422589 4.049655 -1.813415
N    0.041125 4.843370 0.360452
O    -2.158451 4.455125 -0.144948
O    2.319067 5.096182 0.272516
H    1.604130 4.835621 -2.368128
H    0.761486 5.743154 2.076247
H    -0.866435 4.663587 -2.606146
H    -0.401740 4.408717 2.363703
H    -6.270153 -1.861429 -1.729886
C    -5.229545 -1.695739 -2.013685
C    -4.913306 -1.254126 -3.300179
H    -5.705981 -1.068184 -4.027019
C    -3.581031 -1.061562 -3.662138
H    -3.334780 -0.731052 -4.674660
C    -2.550006 -1.298474 -2.744971
C    -2.871499 -1.718686 -1.450706
H    -2.080035 -1.887794 -0.714819
C    -4.205809 -1.925686 -1.094520
H    -4.441123 -2.276167 -0.087748
H    -0.978076 -1.466515 -4.209007
H    -0.880148 -0.010067 -3.209025
H    3.156455 -0.358868 -1.797896
C    3.854371 -1.188584 -1.933932
C    4.070529 -2.083193 -0.876175
C    4.990599 -3.125949 -1.039301
H    5.159445 -3.824928 -0.217086
C    5.678414 -3.280255 -2.243189
H    6.388416 -4.100637 -2.360389
C    5.455898 -2.389364 -3.293224
H    5.993718 -2.509095 -4.235244
C    4.546308 -1.341664 -3.133053
H    4.380481 -0.633450 -3.946710
H    -3.098182 4.011472 3.129779
C    -3.498046 3.099000 2.684098
C    -4.803965 3.077158 2.195129
H    -5.428271 3.970291 2.253800
C    -5.302632 1.904528 1.626805
H    -6.320393 1.876111 1.232212
C    -4.497119 0.771533 1.538270
H    -4.881645 -0.126432 1.051029
C    -3.183867 0.779906 2.030477
C    -2.696258 1.962225 2.607338
H    -1.678627 1.988406 2.996028
