75
Energy = 0.00 kcal/mol
H    -3.626204 -1.053462 1.945332
C    -2.806611 -1.093461 1.234277
H    -1.457682 -2.801942 1.732272
C    -1.747905 -1.943101 1.134747
C    -3.551582 0.977809 -0.000568
N    -2.686816 -0.183279 0.203009
H    2.683595 -0.865753 4.362979
H    2.791634 1.548425 5.014843
C    2.429695 -0.095484 3.631737
C    2.490864 1.269081 4.003918
N    -1.005508 -1.524429 0.048274
C    -1.587727 -0.455200 -0.495992
C    2.051660 -0.465388 2.359514
C    2.170448 2.235887 3.075426
H    2.006546 -1.524444 2.094877
H    2.215824 3.295632 3.341758
C    0.246236 -2.074728 -0.386516
C    0.282189 -3.457274 -0.746570
C    1.708178 0.511940 1.377440
C    1.781665 1.887056 1.757894
H    -1.171881 0.088404 -1.359326
C    1.295842 0.173336 0.058372
C    1.455527 2.875296 0.785183
C    1.356339 -1.251802 -0.375991
C    1.504226 -4.004133 -1.063635
H    1.511538 3.927060 1.082701
H    1.565603 -5.057326 -1.346621
C    1.031853 2.556004 -0.481198
C    0.915876 1.150880 -0.903844
C    2.615544 -1.833484 -0.749558
C    2.687571 -3.218784 -1.076487
O    0.473187 0.841218 -2.051280
C    3.809470 -1.060291 -0.786058
C    3.943111 -3.789653 -1.425139
H    3.753308 0.001387 -0.542034
H    3.985519 -4.851698 -1.675591
C    5.010000 -1.638926 -1.126489
C    5.079641 -3.017820 -1.447727
H    5.917375 -1.033888 -1.153367
H    6.039212 -3.463217 -1.715544
H    -1.158084 1.926175 0.963074
C    -2.027680 2.410103 1.419860
C    -3.327083 2.034166 1.058990
C    -4.419709 2.660887 1.663598
H    -5.435353 2.363129 1.391860
C    -4.217495 3.664435 2.613228
H    -5.076665 4.147208 3.082315
C    -2.921612 4.041700 2.965478
H    -2.762692 4.824433 3.708754
C    -1.827121 3.411183 2.368301
H    -0.808680 3.696280 2.639857
H    -4.592998 0.632993 0.001162
H    -3.328666 1.366251 -1.003995
H    -2.033186 -2.926251 -2.088437
C    -2.067544 -3.872202 -1.542645
C    -0.953038 -4.287333 -0.797680
C    -1.006201 -5.515902 -0.125950
H    -0.147704 -5.842378 0.464982
C    -2.149932 -6.312529 -0.195868
H    -2.179046 -7.264972 0.335944
C    -3.252630 -5.891635 -0.939196
H    -4.146259 -6.515116 -0.996271
C    -3.207761 -4.669493 -1.613586
H    -4.062560 -4.338883 -2.205858
H    1.725202 6.736942 -2.427396
C    1.089848 5.851801 -2.360059
C    -0.087414 5.777258 -3.104727
H    -0.383848 6.605804 -3.750467
C    -0.881920 4.631409 -3.020032
H    -1.805044 4.563948 -3.598953
C    -0.505034 3.571375 -2.197911
C    0.667943 3.640406 -1.427542
C    1.461810 4.793447 -1.530362
H    2.391626 4.853545 -0.960176
H    -1.117696 2.672442 -2.144522
