115
Energy = 0.00 kcal/mol
O    -0.404052 -2.427469 -1.658199
C    -1.302656 -3.107510 -2.121973
O    -1.077288 -4.138491 -2.964947
C    0.226651 -4.271494 -3.520451
C    0.359644 -3.368351 -4.734669
C    -2.734307 -2.925153 -1.945296
N    -3.217138 -2.124731 -0.960283
C    -4.507396 -2.144449 -0.792664
C    -5.245559 -1.252926 0.103363
C    -4.743729 -0.012966 0.534703
C    -5.493741 0.786414 1.394197
C    -6.757802 0.376365 1.825610
C    -7.274543 -0.843163 1.383483
C    -6.525956 -1.644974 0.525096
H    0.975716 -4.048157 -2.746354
H    0.327013 -5.328191 -3.796143
H    0.101662 -2.331037 -4.467728
H    -0.329448 -3.697113 -5.525427
H    1.383532 -3.399124 -5.134829
H    -2.190478 -1.096105 -0.265182
H    -3.336870 -3.782129 -2.266138
H    -5.091414 -2.960529 -1.242165
H    -3.765994 0.326631 0.191715
H    -5.088800 1.746768 1.720945
H    -7.342359 1.009497 2.495745
H    -8.264679 -1.169492 1.707924
H    -6.930199 -2.599898 0.179245
H    4.339256 0.523891 -2.575159
C    3.312858 0.692399 -2.263026
H    3.079444 2.786115 -1.520525
C    2.702616 1.792885 -1.745807
C    2.578013 -1.675056 -2.767295
N    2.350918 -0.292390 -2.346293
H    4.239042 2.360628 2.592548
H    4.798664 0.184401 3.687429
C    3.546858 1.520625 2.509995
C    3.864333 0.288118 3.133507
N    1.386823 1.442436 -1.518623
C    1.194279 0.173725 -1.886402
C    2.371786 1.670981 1.809598
C    2.988993 -0.769060 3.044280
H    2.130595 2.628619 1.342120
H    3.217624 -1.721712 3.528239
C    0.376274 2.291132 -0.964462
C    -0.015717 3.445537 -1.705265
C    1.454468 0.588307 1.686738
C    1.770807 -0.647554 2.324148
H    0.247417 -0.377900 -1.850666
C    0.241204 0.687898 0.946273
C    0.838550 -1.718405 2.243456
C    -0.163901 1.944768 0.255129
C    -0.947939 4.281733 -1.135412
H    1.049302 -2.642063 2.789830
H    -1.278993 5.169695 -1.678717
C    -0.332460 -1.619055 1.530013
C    -0.611086 -0.403381 0.816520
C    -1.171739 2.794447 0.814152
C    -1.545851 3.980944 0.118180
O    -1.664668 -0.258849 0.025274
C    -1.812780 2.487406 2.045847
C    -2.543667 4.827219 0.676256
H    -1.530159 1.576902 2.576680
H    -2.826474 5.732204 0.134678
C    -2.773861 3.325352 2.560859
C    -3.144493 4.506847 1.869796
H    -3.259107 3.079302 3.506901
H    -3.911987 5.159597 2.288851
H    -2.208033 1.535506 -1.480929
C    -4.676087 -0.119165 -2.864585
C    -4.632500 -1.441099 -3.448352
C    -2.472120 -0.589465 -3.334022
C    -2.928533 1.626762 -2.305520
C    -3.301833 -1.801472 -3.651619
N    -3.320025 0.318853 -2.765932
O    -1.277810 -0.410417 -3.533409
O    -5.605726 0.592821 -2.527357
H    -5.528931 -2.003267 -3.695700
H    -3.835446 2.129806 -1.946651
H    -2.924164 -2.533774 -4.366192
H    -2.480711 2.218115 -3.119708
H    1.645952 -2.424577 -0.354214
C    2.687278 -2.731046 -0.498689
C    3.329196 -2.443801 -1.709269
C    4.654478 -2.837700 -1.904907
H    5.153281 -2.613398 -2.850931
C    5.339826 -3.517946 -0.895567
H    6.375063 -3.824919 -1.053000
C    4.699824 -3.801693 0.310499
H    5.233923 -4.331004 1.101561
C    3.373468 -3.408134 0.506680
H    2.871724 -3.631231 1.450286
H    3.121062 -1.655001 -3.720242
H    1.579985 -2.098556 -2.919730
H    -0.070836 1.751241 -3.833942
C    0.417752 2.704958 -4.061141
C    0.519967 3.696105 -3.070552
C    1.109448 4.925476 -3.388794
H    1.193120 5.696032 -2.619159
C    1.603643 5.160030 -4.672766
H    2.068097 6.119418 -4.906951
C    1.508615 4.169786 -5.650677
H    1.897226 4.352708 -6.654059
C    0.910076 2.945463 -5.342805
H    0.819989 2.172513 -6.108008
H    -1.759028 -5.964905 0.578407
C    -1.995112 -4.989854 1.008929
C    -3.259387 -4.752699 1.552818
H    -4.011689 -5.543868 1.551136
C    -3.557486 -3.504733 2.102580
H    -4.544447 -3.311637 2.527653
C    -2.602214 -2.490854 2.085686
C    -1.333835 -2.718306 1.534924
C    -1.032210 -3.980547 1.010002
H    -0.048286 -4.154112 0.567928
H    -2.844152 -1.503871 2.488689
