115
Energy = 0.00 kcal/mol
O    -1.959544 1.039626 -0.747570
C    -1.950853 1.871472 -1.635110
O    -3.074756 2.320763 -2.217635
C    -4.302230 1.874023 -1.641563
C    -5.427289 2.258774 -2.572492
C    -0.759884 2.525324 -2.177650
N    0.428981 2.070903 -1.722246
C    1.536343 2.537121 -2.203515
C    2.805124 2.255513 -1.524326
C    2.803670 1.787347 -0.197553
C    4.003081 1.552188 0.467212
C    5.223638 1.757759 -0.182945
C    5.233478 2.225784 -1.498613
C    4.033512 2.487697 -2.158864
H    -4.252887 0.785685 -1.486051
H    -4.402181 2.341110 -0.650813
H    -6.388904 1.936239 -2.148961
H    -5.300033 1.773752 -3.551098
H    -5.459812 3.346944 -2.722433
H    -1.042305 1.601517 1.296321
H    -0.859530 2.974299 -3.174917
H    1.569601 3.109939 -3.143848
H    1.844690 1.627917 0.303346
H    3.984614 1.208164 1.503548
H    6.163876 1.563968 0.337075
H    6.183241 2.396768 -2.009552
H    4.043582 2.869975 -3.182901
H    0.032727 -3.483085 -3.116219
C    0.340094 -2.817152 -2.315619
H    1.793459 -3.857857 -0.978893
C    1.195845 -3.001305 -1.275288
C    -1.128058 -0.937523 -3.107189
N    -0.137762 -1.526168 -2.216067
H    -0.079476 -6.054565 1.875556
H    -2.571431 -6.238466 1.952797
C    -0.688112 -5.148900 1.890224
C    -2.099557 -5.254806 1.937650
N    1.212330 -1.816892 -0.564204
C    0.389034 -0.937414 -1.143386
C    -0.074961 -3.916150 1.868482
C    -2.867015 -4.114416 1.977982
H    1.014919 -3.855742 1.844315
H    -3.956410 -4.178498 2.033546
C    1.949422 -1.575417 0.639906
C    3.370650 -1.707950 0.610884
C    -0.844160 -2.717320 1.879273
C    -2.262194 -2.828836 1.952614
H    0.192697 0.096782 -0.822175
C    -0.257087 -1.413060 1.807746
C    -3.036689 -1.642158 2.025487
C    1.231930 -1.304518 1.786195
C    4.045466 -1.558094 1.801195
H    -4.115280 -1.735906 2.172248
H    5.134092 -1.647326 1.814021
C    -2.477185 -0.386602 1.963025
C    -1.052538 -0.278100 1.794204
C    1.952867 -1.080105 3.003154
C    3.371314 -1.221918 3.005241
O    -0.443073 0.909057 1.659049
C    1.292633 -0.748937 4.218547
C    4.087681 -1.012023 4.216309
H    0.206501 -0.646911 4.220663
H    5.174293 -1.118030 4.207024
C    2.012167 -0.551042 5.373533
C    3.423967 -0.680778 5.373124
H    1.495216 -0.289363 6.297985
H    3.981227 -0.517634 6.297070
H    0.670918 4.475728 2.616221
C    1.344366 4.874890 -0.452999
C    0.431023 5.072488 -1.557080
C    -0.663300 3.922631 0.138619
C    1.134836 3.835543 1.849857
C    -0.775917 4.450119 -1.263329
N    0.622334 4.142761 0.538056
O    -1.524599 3.371299 0.810651
O    2.490027 5.246728 -0.269414
H    0.696185 5.647534 -2.440601
H    2.216006 4.018312 1.827715
H    -1.759442 4.688178 -1.669117
H    0.941277 2.784128 2.102792
H    -6.270110 -2.044859 -1.858051
C    -5.229173 -1.824463 -2.101002
C    -4.898785 -1.263841 -3.336385
H    -5.680643 -1.039728 -4.063987
C    -3.566545 -0.993700 -3.645749
H    -3.309597 -0.558509 -4.614911
C    -2.552782 -1.274562 -2.722816
C    -2.887077 -1.823658 -1.482937
H    -2.116781 -2.025196 -0.733228
C    -4.220218 -2.102984 -1.178990
H    -4.466843 -2.541193 -0.210144
H    -0.907945 -1.297632 -4.120541
H    -0.961079 0.147992 -3.103500
H    3.249702 -0.338383 -1.748517
C    3.923441 -1.197219 -1.789860
C    4.105773 -1.995320 -0.650853
C    5.008334 -3.065661 -0.706495
H    5.149897 -3.694686 0.175324
C    5.709180 -3.340208 -1.881573
H    6.403225 -4.181823 -1.914062
C    5.517661 -2.545581 -3.012183
H    6.063075 -2.761304 -3.932583
C    4.627113 -1.471123 -2.960400
H    4.484284 -0.834022 -3.835100
H    -3.503587 3.770580 3.821259
C    -3.825175 2.943142 3.186649
C    -5.093598 2.956284 2.607446
H    -5.770125 3.793877 2.786181
C    -5.491641 1.892936 1.794171
H    -6.479504 1.898665 1.328566
C    -4.622150 0.830709 1.559014
H    -4.921587 0.014516 0.896947
C    -3.345301 0.806112 2.139302
C    -2.959002 1.875666 2.959021
H    -1.970427 1.876922 3.421465
