115
Energy = 0.00 kcal/mol
O    -2.067237 0.996002 -0.812943
C    -2.062769 1.928206 -1.577459
O    -3.167020 2.451867 -2.113901
C    -4.420857 1.916284 -1.678112
C    -5.467012 2.261349 -2.710657
C    -0.821487 2.640555 -2.076756
N    0.350542 1.944845 -1.722643
C    1.415200 2.614717 -2.150279
C    2.718162 2.319650 -1.500520
C    2.737717 1.854460 -0.176281
C    3.948962 1.579831 0.454442
C    5.154695 1.745562 -0.231744
C    5.142152 2.213078 -1.547547
C    3.930915 2.513895 -2.171477
H    -4.316552 0.829468 -1.544555
H    -4.647854 2.354557 -0.696210
H    -6.444552 1.871677 -2.394010
H    -5.212949 1.810186 -3.680483
H    -5.550216 3.349440 -2.839294
H    -1.022100 1.614460 1.326571
H    -0.965523 2.852594 -3.160032
H    1.498507 2.945258 -3.202749
H    1.786361 1.708044 0.343622
H    3.951077 1.226629 1.487889
H    6.102790 1.513431 0.257670
H    6.081156 2.346973 -2.088546
H    3.921354 2.890733 -3.197834
H    -0.019282 -3.517694 -3.069419
C    0.311908 -2.842090 -2.286703
H    1.737153 -3.894893 -0.929044
C    1.165118 -3.027613 -1.244463
C    -1.100111 -0.922483 -3.106552
N    -0.125756 -1.534919 -2.214476
H    -0.082295 -6.054399 1.889680
H    -2.574327 -6.233309 1.966290
C    -0.688928 -5.147301 1.899474
C    -2.100829 -5.250520 1.946304
N    1.216235 -1.827647 -0.559281
C    0.419200 -0.935015 -1.156613
C    -0.073421 -3.916025 1.873617
C    -2.866370 -4.108810 1.979325
H    1.016584 -3.857932 1.851189
H    -3.955975 -4.170356 2.033582
C    1.953571 -1.582645 0.643346
C    3.374432 -1.711587 0.616325
C    -0.840678 -2.715456 1.878712
C    -2.258985 -2.824495 1.948583
H    0.279997 0.137870 -0.908051
C    -0.251521 -1.412572 1.808731
C    -3.031119 -1.636305 2.016367
C    1.236989 -1.305974 1.788652
C    4.050276 -1.553403 1.804681
H    -4.110508 -1.728243 2.158639
H    5.139046 -1.641092 1.817069
C    -2.468840 -0.381530 1.956702
C    -1.043434 -0.275162 1.795517
C    1.957325 -1.071916 3.003789
C    3.375939 -1.211159 3.006660
O    -0.428057 0.909846 1.671196
C    1.296666 -0.732678 4.216718
C    4.091812 -0.994375 4.216755
H    0.210426 -0.632515 4.218488
H    5.178513 -1.099776 4.208462
C    2.015874 -0.526571 5.370360
C    3.427574 -0.657202 5.371481
H    1.498650 -0.259796 6.293162
H    3.984307 -0.489357 6.294897
H    0.477889 4.727039 2.609935
C    1.428632 4.813089 -0.457864
C    0.741374 4.568644 -1.694243
C    -0.578420 3.821896 0.108489
C    1.056137 4.070781 1.942939
C    -0.632830 4.073448 -1.393277
N    0.631104 4.220326 0.572266
O    -1.458977 3.314773 0.791108
O    2.497648 5.343097 -0.205535
H    0.977594 5.183281 -2.562409
H    2.117094 4.343322 1.989399
H    -1.470485 4.737582 -1.651647
H    0.918458 3.028151 2.264526
H    -6.261399 -2.036589 -1.933485
C    -5.217057 -1.819253 -2.164161
C    -4.868949 -1.269003 -3.399286
H    -5.640247 -1.050484 -4.139846
C    -3.531780 -1.001122 -3.692109
H    -3.262003 -0.574644 -4.661831
C    -2.530511 -1.272726 -2.753005
C    -2.883378 -1.815921 -1.514736
H    -2.122774 -2.010465 -0.753373
C    -4.220230 -2.092537 -1.226591
H    -4.479879 -2.523833 -0.257795
H    -0.865166 -1.246471 -4.129031
H    -0.923243 0.160711 -3.050454
H    3.261726 -0.331113 -1.733227
C    3.930007 -1.195175 -1.779755
C    4.108010 -2.000449 -0.645065
C    5.006397 -3.074005 -0.702977
H    5.145127 -3.705557 0.177514
C    5.706319 -3.347808 -1.878642
H    6.397560 -4.191599 -1.914101
C    5.517162 -2.548437 -3.006417
H    6.061482 -2.763477 -3.927636
C    4.631959 -1.469472 -2.951470
H    4.493095 -0.828924 -3.824311
H    -3.505643 3.762233 3.839285
C    -3.823095 2.939884 3.195877
C    -5.090516 2.954584 2.614046
H    -5.770292 3.788092 2.799380
C    -5.483566 1.897454 1.790586
H    -6.470569 1.904963 1.323377
C    -4.610829 0.839651 1.547248
H    -4.905730 0.028903 0.876558
C    -3.336937 0.811270 2.133194
C    -2.954800 1.875408 2.962149
H    -1.968427 1.872413 3.429467
