115
Energy = 0.00 kcal/mol
O    -0.479592 -2.695899 -1.970896
C    -1.407739 -3.160734 -2.587177
O    -1.271303 -4.006240 -3.613892
C    0.037696 -4.201252 -4.155426
C    0.333623 -3.112445 -5.169928
C    -2.869063 -2.873173 -2.372581
N    -3.186599 -2.194291 -1.172919
C    -4.492309 -2.143857 -1.024420
C    -5.190686 -1.221756 -0.112850
C    -4.649722 0.016582 0.266474
C    -5.364846 0.864717 1.109563
C    -6.629020 0.497605 1.576053
C    -7.182716 -0.724378 1.187857
C    -6.469580 -1.572185 0.342749
H    0.766175 -4.220390 -3.332265
H    0.019057 -5.193587 -4.620783
H    0.176095 -2.119086 -4.721583
H    -0.343441 -3.202893 -6.030393
H    1.368290 -3.192414 -5.532016
H    -2.294983 -1.302603 -0.624076
H    -3.416144 -3.825291 -2.494980
H    -5.085720 -3.015269 -1.332818
H    -3.665095 0.312208 -0.097516
H    -4.930276 1.824664 1.397100
H    -7.186501 1.166408 2.234574
H    -8.173919 -1.014841 1.541221
H    -6.903265 -2.526913 0.033906
H    4.179759 0.387193 -2.726581
C    3.151434 0.557080 -2.422090
H    2.889464 2.679891 -1.780167
C    2.526152 1.672208 -1.958174
C    2.472109 -1.843711 -2.790095
N    2.204248 -0.445095 -2.455668
H    3.824338 2.474598 2.839002
H    4.297196 0.361302 4.089734
C    3.164241 1.613961 2.715183
C    3.432140 0.417873 3.427341
N    1.214806 1.316211 -1.713298
C    1.039477 0.028304 -2.018215
C    2.080446 1.701758 1.871774
C    2.594241 -0.664251 3.284423
H    1.881342 2.629373 1.329606
H    2.782983 -1.589181 3.835455
C    0.214512 2.180732 -1.162233
C    -0.173292 3.331661 -1.911724
C    1.207111 0.590638 1.689155
C    1.467617 -0.605311 2.422292
H    0.093401 -0.521198 -1.950200
C    0.094366 0.627355 0.803391
C    0.564000 -1.696220 2.287932
C    -0.294786 1.871083 0.080059
C    -1.067109 4.201077 -1.328948
H    0.715324 -2.584796 2.907791
H    -1.395393 5.084770 -1.880860
C    -0.505701 -1.659630 1.425800
C    -0.719324 -0.491387 0.606068
C    -1.258152 2.760996 0.656868
C    -1.626860 3.943712 -0.048312
O    -1.649405 -0.425935 -0.316323
C    -1.852238 2.500397 1.923047
C    -2.576756 4.829236 0.532445
H    -1.573469 1.592004 2.459483
H    -2.858407 5.729880 -0.016901
C    -2.763731 3.378311 2.461688
C    -3.131873 4.553712 1.759194
H    -3.213325 3.167473 3.433453
H    -3.860242 5.238617 2.196178
H    -2.399093 1.605828 -1.752136
C    -4.888252 -0.135302 -2.970583
C    -4.828823 -1.522788 -3.257620
C    -2.658756 -0.602590 -3.405140
C    -3.132782 1.667508 -2.570609
C    -3.430774 -1.912736 -3.549933
N    -3.522766 0.337892 -2.962700
O    -1.462050 -0.435591 -3.608334
O    -5.811093 0.630269 -2.725305
H    -5.713269 -2.090643 -3.536806
H    -4.037287 2.185735 -2.228565
H    -3.223538 -2.397974 -4.513866
H    -2.686373 2.219548 -3.412286
H    1.566074 -2.234580 -0.268142
C    2.567111 -2.652897 -0.415859
C    3.192024 -2.546074 -1.664807
C    4.466031 -3.085831 -1.851674
H    4.953768 -3.001560 -2.825859
C    5.114295 -3.734794 -0.797771
H    6.109868 -4.155142 -0.949355
C    4.490793 -3.839858 0.444999
H    4.997299 -4.343949 1.269822
C    3.216896 -3.296296 0.634769
H    2.725679 -3.373457 1.606381
H    3.054029 -1.864363 -3.719724
H    1.492468 -2.302485 -2.957832
H    -0.284370 1.576629 -3.986802
C    0.185440 2.527757 -4.259088
C    0.316280 3.546435 -3.300199
C    0.876066 4.773876 -3.676069
H    0.982812 5.566339 -2.932022
C    1.308197 4.981175 -4.986704
H    1.747598 5.940262 -5.266308
C    1.183404 3.964119 -5.933562
H    1.523324 4.125459 -6.958014
C    0.618300 2.740247 -5.566883
H    0.504457 1.946337 -6.307019
H    -1.887812 -5.965724 0.235762
C    -2.134959 -5.015827 0.714185
C    -3.404654 -4.818201 1.261003
H    -4.151513 -5.612931 1.210821
C    -3.713676 -3.605095 1.878064
H    -4.704210 -3.442423 2.307634
C    -2.762910 -2.587434 1.928827
C    -1.491065 -2.774637 1.374097
C    -1.179329 -4.001199 0.776968
H    -0.191245 -4.143482 0.334188
H    -3.011977 -1.627111 2.387685
