102
Energy = 0.00 kcal/mol
O    1.231124 3.342584 3.542508
C    1.291759 2.452542 2.721260
O    1.755449 2.672399 1.465390
C    2.322518 3.956030 1.208391
C    3.802032 3.962510 1.541342
C    0.839381 1.074756 2.945180
N    1.619675 0.060513 2.380085
C    1.564611 -1.134707 2.831573
C    2.358575 -2.234072 2.254819
C    2.127979 -3.553596 2.673348
C    2.910713 -4.602063 2.190516
C    3.938844 -4.347421 1.282042
C    4.169378 -3.038369 0.845908
C    3.388377 -1.991188 1.328357
H    2.152811 4.149954 0.141177
H    1.783470 4.710085 1.795342
H    4.330719 3.186044 0.968532
H    3.953735 3.773896 2.613805
H    4.245577 4.937613 1.293776
H    -0.410234 0.863398 2.294538
H    0.555914 0.929957 4.000929
H    0.924131 -1.397081 3.693369
H    1.331307 -3.752545 3.393988
H    2.721013 -5.621928 2.530239
H    4.560302 -5.166190 0.914716
H    4.975692 -2.833258 0.138688
H    3.588755 -0.961087 1.028499
H    2.351727 -0.531470 -3.383545
C    1.670836 -0.783518 -2.576220
H    0.161306 -2.260227 -3.302207
C    0.598033 -1.622328 -2.539675
N    1.788994 -0.227449 -1.317783
H    -3.186424 -0.269053 -4.948667
H    -3.212901 2.215793 -5.230104
C    -2.965336 0.374113 -4.094699
C    -2.982809 1.781391 -4.256138
N    0.086524 -1.552647 -1.259049
C    0.819245 -0.697324 -0.543502
C    -2.680985 -0.192001 -2.872466
C    -2.718741 2.592014 -3.176428
H    -2.686306 -1.278741 -2.765765
H    -2.742516 3.679850 -3.280135
C    -1.073454 -2.201550 -0.721176
C    -1.128327 -3.628173 -0.695479
C    -2.383737 0.621651 -1.740090
C    -2.414522 2.038033 -1.904343
H    0.649138 -0.429553 0.501655
C    -2.054370 0.087893 -0.458331
C    -2.157382 2.860610 -0.775591
C    -2.085056 -1.388810 -0.250226
C    -2.243725 -4.208003 -0.134162
H    -2.255673 3.942503 -0.896544
H    -2.318090 -5.296792 -0.092738
C    -1.822976 2.349802 0.459319
C    -1.733004 0.912329 0.625158
C    -3.220740 -2.007551 0.364552
C    -3.291095 -3.429106 0.424668
O    -1.363471 0.362629 1.758190
C    -4.285756 -1.242316 0.914992
C    -4.418506 -4.044261 1.036122
H    -4.233133 -0.153918 0.867994
H    -4.463009 -5.134325 1.076869
C    -5.361107 -1.864701 1.504016
C    -5.429910 -3.279626 1.565159
H    -6.169430 -1.267158 1.928076
H    -6.291062 -3.758526 2.034202
C    2.739817 0.805692 -0.911206
H    -0.155257 4.131410 -2.461574
C    0.878091 3.805345 -2.326312
C    1.935759 4.639526 -2.699196
H    1.732312 5.622527 -3.127075
C    3.251605 4.207551 -2.530414
H    4.082248 4.849267 -2.828820
C    3.509787 2.947722 -1.986001
H    4.540471 2.609416 -1.855308
C    2.454415 2.120284 -1.596193
C    1.135570 2.551856 -1.775039
H    0.299063 1.916805 -1.468746
H    3.754262 0.450236 -1.135614
H    2.622453 0.922447 0.179345
C    -1.622300 3.278960 1.602108
C    -1.005320 4.521775 1.395815
H    -0.580603 4.750889 0.415173
C    -0.910332 5.453468 2.427728
H    -0.421991 6.413129 2.245781
C    -1.420589 5.154870 3.690119
H    -1.342063 5.881011 4.501175
C    -2.016642 3.913372 3.914107
H    -2.412681 3.667451 4.901241
C    -2.113903 2.980950 2.883854
H    -2.582210 2.012878 3.064273
H    1.597017 -3.545461 -0.253204
C    1.293871 -4.295962 -0.989433
C    2.262786 -5.088444 -1.603037
H    3.313260 -4.939244 -1.350899
C    1.894751 -6.068708 -2.526360
H    2.658469 -6.683341 -3.005680
C    0.546927 -6.259968 -2.830909
H    0.248782 -7.024810 -3.550022
C    -0.424020 -5.463482 -2.224904
H    -1.476994 -5.597781 -2.481140
C    -0.062096 -4.470039 -1.303245
