85
CONF6
O 0.6858093954 -2.7715655362 0.0093617734
C 1.8502034747 -3.0721932489 -0.2141276142
O 2.2425236658 -4.3208088016 -0.5722626115
C 1.1870001949 -5.2929199416 -0.8023646703
C 0.7247187804 -5.2398620601 -2.2422812052
C 3.0063736670 -2.1693723804 -0.1420392751
N 2.7721640852 -0.9342765414 0.4127599485
C 3.8269089639 -0.2208964257 0.6793620517
C 3.7458845851 1.1834210983 1.0574452164
C 2.5730042505 1.9389709075 0.8851431468
C 2.5474002303 3.2854108907 1.2226782518
C 3.6870774642 3.9098299642 1.7334786301
C 4.8594410824 3.1740422686 1.8962691921
C 4.8895996507 1.8266115695 1.5562398300
H 1.6419345963 -6.2576184521 -0.5621939419
H 0.3643820614 -5.0996986217 -0.1078937779
H 1.5389361596 -5.5052515446 -2.9239902243
H 0.3745591440 -4.2357805925 -2.4959938604
H -0.0955670828 -5.9505155574 -2.3911918117
H -0.2896913887 -1.0598489267 -2.0990593393
H 3.9545934834 -2.6769414742 0.0711423868
H 4.8302035986 -0.6662955163 0.7001469501
H 1.6946926480 1.4614624063 0.4616118508
H 1.6396473696 3.8613854931 1.0693778727
H 3.6638090589 4.9648457182 1.9885433742
H 5.7537629161 3.6538496391 2.2828170291
H 5.8076304184 1.2562894135 1.6739384666
H -0.0103102154 -0.1869900097 5.1288792789
C -0.2050507710 0.0099492959 4.0866997196
H -1.4949529120 1.8086647845 3.8915119725
H 1.2117607584 -2.5311837724 2.3746839568
C -0.9265863872 0.9886012415 3.4831601835
H 0.7598269836 -2.5636460500 4.1031537310
C 1.1688807387 -1.9524256207 3.2962692779
N 0.2906818748 -0.8019693394 3.0863010736
H -5.5963700487 -0.4504604494 3.5175593815
H -5.9551982235 -2.9016323705 3.2960179767
C -5.0564795091 -1.0062330368 2.7566243158
C -5.2625135876 -2.3957336251 2.6307076452
N -0.8599146411 0.7556150956 2.1181369616
H 2.1689854015 -1.6024156221 3.5641651900
C -0.1093288812 -0.3393465403 1.9007212105
C -4.1818757677 -0.3472819709 1.9224565247
C -4.5892896148 -3.1028422866 1.6608384094
H -0.5680736263 3.3437704039 2.0160097735
H -4.0359102162 0.7238893396 2.0251263886
H -4.7439036707 -4.1730330754 1.5504613760
C -1.4668185383 1.5927463968 1.1258910172
C -1.2188424111 2.9777551135 1.2293071716
C -3.4641100595 -1.0489074542 0.9207590405
C -3.6816442176 -2.4586816227 0.7881752910
H 0.1748484300 -0.7688754404 0.9470389119
C -2.5337633791 -0.4080229415 0.0575435574
C -2.9816932199 -3.1672662766 -0.2202350636
C -2.2736555319 1.0496618243 0.1453943141
C -1.7830520119 3.8365526657 0.3241608453
H -3.1559209399 -4.2347424047 -0.3259220403
H -1.5893773975 4.9030249388 0.3880510614
C -2.0965489050 -2.5319534769 -1.0491987490
C -1.8562062476 -1.1448768733 -0.9044661322
C -2.8669974280 1.9410817157 -0.8001035596
C -2.6167457974 3.3471520163 -0.7088974733
O -0.9885233990 -0.4820763306 -1.6932468373
H -1.5510286069 -3.0817125243 -1.8089771513
C -3.7217120495 1.4702328690 -1.8266577640
C -3.2125138513 4.2182797838 -1.6528709173
H -3.9218713460 0.4064703362 -1.8980225361
H -3.0110427984 5.2830964709 -1.5778029850
C -4.2892664955 2.3430530802 -2.7241391827
C -4.0311498733 3.7274561680 -2.6411242223
H -4.9411760480 1.9649942260 -3.5055557494
H -4.4836996199 4.4030953378 -3.3602076682
H 1.0567511950 1.0549120199 -3.7795226388
C 3.9074037225 0.5280383215 -2.2575255459
C 4.5082481052 -0.7387184334 -2.0208002746
C 2.2465774591 -1.0723037860 -2.4554183842
C 1.5290660913 1.2870284341 -2.8181350890
C 3.5146704719 -1.7403753305 -2.0248318187
N 2.4854904923 0.2645267070 -2.4532409707
O 1.1755089206 -1.6256061326 -2.7533348197
O 4.3634060210 1.6658463486 -2.3627821317
H 5.5706141097 -0.8704627543 -1.8724182077
H 2.0742775315 2.2305511346 -2.9018223847
H 3.6789923713 -2.7645524173 -2.3456278966
H 0.7446894679 1.3896614084 -2.0612095938
