          85
 
O       0.6979962     -2.7161345     -0.0258686
C       1.8365915     -3.0501486     -0.2691495
O       2.1676184     -4.2821124     -0.6650837
C       1.0954251     -5.1893445     -0.9509642
C       0.6984554     -5.0786703     -2.4090087
C       3.0267319     -2.1531027     -0.2151941
N       2.7693468     -0.9334948      0.4018166
C       3.8018711     -0.2121903      0.6610201
C       3.6967278      1.2120757      1.0130724
C       2.5286187      1.9405048      0.7414937
C       2.4605858      3.2965283      1.0484861
C       3.5553536      3.9436926      1.6293470
C       4.7267619      3.2301597      1.8848993
C       4.7989861      1.8745961      1.5673625
H       1.4815202     -6.1867658     -0.7081673
H       0.2516698     -4.9590524     -0.2874372
H       1.5295008     -5.3832398     -3.0607044
H       0.4425519     -4.0371321     -2.6489348
H      -0.1649717     -5.7265605     -2.6156503
H      -0.1869505     -1.1359804     -1.9734631
H       3.9383467     -2.6990718      0.0903963
H       4.8170723     -0.6410253      0.6734558
H       1.6965690      1.4270450      0.2535298
H       1.5585295      3.8647572      0.8143887
H       3.4998335      5.0070209      1.8683303
H       5.5890309      3.7326833      2.3258317
H       5.7206865      1.3173953      1.7518084
H       0.1463874     -0.3201988      5.0237807
C      -0.0570108     -0.0766267      3.9860276
H      -1.3984129      1.7045005      3.8840417
H       1.2208500     -2.6182885      2.2354482
C      -0.8083973      0.9123289      3.4332910
H       1.0547291     -2.5012280      4.0184643
C       1.3432216     -1.9692102      3.1057082
N       0.4543379     -0.8233415      2.9462440
H      -5.6838724     -0.3594312      3.4743756
H      -6.0826719     -2.8183823      3.2616935
C      -5.1333326     -0.9332043      2.7271244
C      -5.3615876     -2.3261292      2.6074859
N      -0.7375460      0.7434842      2.0639717
H       2.3817821     -1.6252666      3.1782558
C       0.0371916     -0.3142342      1.7891072
C      -4.2247090     -0.2979584      1.9118539
C      -4.6705215     -3.0532795      1.6662853
H      -0.4765749      3.3496662      1.9936777
H      -4.0590158      0.7770995      2.0110598
H      -4.8368692     -4.1277473      1.5621935
C      -1.3871462      1.5904331      1.1090479
C      -1.1417111      2.9826949      1.2108393
C      -3.4853901     -1.0279792      0.9383833
C      -3.7189755     -2.4304103      0.8161518
H       0.3288232     -0.6873972      0.8014925
C      -2.5053756     -0.4140917      0.1032477
C      -2.9760381     -3.1719462     -0.1475510
C      -2.2293977      1.0479888      0.1620583
C      -1.7322679      3.8387595      0.3201640
H      -3.1642164     -4.2438107     -0.2434012
H      -1.5474025      4.9125902      0.3832707
C      -2.0277808     -2.5682727     -0.9279824
C      -1.7714569     -1.1744611     -0.7917068
C      -2.8385669      1.9376174     -0.7827080
C      -2.5836285      3.3384427     -0.7038503
O      -0.8291520     -0.5455251     -1.4956102
H      -1.4303256     -3.1376464     -1.6407859
C      -3.6976155      1.4560108     -1.8095367
C      -3.1875239      4.2099830     -1.6507375
H      -3.8960569      0.3852288     -1.8741383
H      -2.9813800      5.2793872     -1.5800747
C      -4.2643460      2.3236459     -2.7128977
C      -4.0079037      3.7156169     -2.6355949
H      -4.9150676      1.9393977     -3.4995607
H      -4.4629473      4.3925718     -3.3606812
H       0.8716627      0.9680344     -3.6076973
C       3.8134380      0.5435360     -2.1608247
C       4.4672836     -0.6955820     -1.9877337
C       2.2075831     -1.0992802     -2.4103530
C       1.4041933      1.2303572     -2.6816776
C       3.4858965     -1.7521532     -1.9484524
N       2.3970559      0.2295006     -2.3735060
O       1.1600671     -1.6849497     -2.7121224
O       4.1837364      1.7119260     -2.1933324
H       5.5393631     -0.7902555     -1.8398384
H       1.9379595      2.1799661     -2.8099194
H       3.6733032     -2.7516383     -2.3643252
H       0.6604708      1.3227299     -1.8768819
