85
Energy = 0.00 kcal/mol
O    2.170813 -1.614042 1.614403
C    2.510626 -2.047033 0.527203
O    2.066849 -3.225739 0.060356
C    1.204584 -3.982985 0.904720
C    0.784143 -5.210812 0.130851
C    3.388063 -1.392230 -0.438828
N    4.063111 -0.290104 -0.044897
C    4.942126 0.205611 -0.856691
C    5.550569 1.516388 -0.612038
C    5.198002 2.274254 0.517530
C    5.752030 3.532981 0.724710
C    6.663053 4.062723 -0.195492
C    7.010097 3.322310 -1.326090
C    6.455315 2.060071 -1.534254
H    1.748275 -4.249382 1.825314
H    0.338565 -3.363449 1.179177
H    0.088837 -5.818260 0.725997
H    1.656477 -5.826798 -0.127370
H    0.285279 -4.911285 -0.801664
H    -0.350463 -0.972786 -0.249263
H    3.800634 -2.057564 -1.208800
H    5.293136 -0.352134 -1.739840
H    4.475342 1.848812 1.216140
H    5.472468 4.110625 1.608190
H    7.095451 5.051400 -0.031954
H    7.713138 3.733237 -2.052944
H    6.716480 1.487258 -2.427315
H    -2.409065 -2.416911 4.484057
C    -2.018086 -1.715190 3.753975
H    -3.696678 -0.528629 2.875539
H    0.064435 -3.481351 4.102121
C    -2.647813 -0.792317 2.976677
H    0.542287 -2.082990 5.119583
C    0.380151 -2.432044 4.092931
N    -0.670794 -1.633745 3.467129
H    -7.387801 0.359009 0.313772
H    -8.216010 -1.990623 0.096646
C    -6.675374 -0.454999 0.169865
C    -7.146050 -1.784296 0.047781
N    -1.665944 -0.165051 2.236882
H    1.289838 -2.316474 3.494566
C    -0.477327 -0.695081 2.544936
C    -5.328258 -0.175909 0.108390
C    -6.246499 -2.810027 -0.126554
H    -0.935406 2.372204 2.413553
H    -4.985277 0.855738 0.203492
H    -6.591025 -3.842556 -0.217745
C    -1.867616 0.825211 1.215973
C    -1.391010 2.134147 1.451751
C    -4.372640 -1.215484 -0.079723
C    -4.851593 -2.553515 -0.190177
H    0.477288 -0.439609 2.077030
C    -2.962653 -0.955224 -0.136409
C    -3.907458 -3.607769 -0.349365
C    -2.462782 0.438532 0.034108
C    -1.509126 3.073790 0.462884
H    -4.270468 -4.634172 -0.433640
H    -1.149859 4.091892 0.623436
C    -2.567701 -3.345742 -0.392781
C    -2.072532 -2.010958 -0.286006
C    -2.573813 1.412092 -1.009868
C    -2.087569 2.734971 -0.791167
O    -0.741458 -1.893320 -0.324894
H    -1.835441 -4.144800 -0.511273
C    -3.142864 1.089287 -2.273362
C    -2.187378 3.691979 -1.838355
H    -3.509480 0.076176 -2.445436
H    -1.811178 4.701860 -1.662322
C    -3.223681 2.035903 -3.266561
C    -2.742745 3.351387 -3.047732
H    -3.657932 1.774251 -4.232573
H    -2.812537 4.091423 -3.846157
H    1.013195 3.420528 -0.893000
C    2.938989 1.539685 -2.367529
C    2.859696 0.165779 -2.799061
C    1.483852 0.461856 -0.961047
C    1.877161 2.867907 -0.491191
C    2.060928 -0.540690 -1.907284
N    2.095974 1.639689 -1.208945
O    0.613495 0.289807 -0.100677
O    3.506874 2.516537 -2.822402
H    3.371543 -0.206194 -3.682402
H    2.779823 3.483129 -0.592686
H    1.538441 -1.481343 -2.083126
H    1.690617 2.639080 0.565884
