85
Energy = 0.00 kcal/mol
O    0.866419 -0.105215 -2.067528
C    1.246373 -1.253939 -1.858721
O    1.439720 -2.114310 -2.867521
C    1.279271 -1.598040 -4.185270
C    1.502810 -2.735378 -5.153245
C    1.597097 -1.804575 -0.566751
N    1.324960 -1.050137 0.518201
C    1.558105 -1.561344 1.685932
C    1.421674 -0.778851 2.915886
C    1.243382 0.613215 2.864186
C    1.082149 1.348352 4.034011
C    1.125846 0.713629 5.279137
C    1.336651 -0.664963 5.341221
C    1.483839 -1.405135 4.168638
H    0.268460 -1.174595 -4.288217
H    1.998579 -0.778244 -4.332242
H    1.372180 -2.384207 -6.185605
H    0.782400 -3.543578 -4.964283
H    2.517277 -3.142248 -5.043785
H    0.442115 0.844535 -0.633055
H    1.643062 -2.899411 -0.502083
H    1.767948 -2.636603 1.801302
H    1.241701 1.090692 1.883846
H    0.921290 2.427183 3.979285
H    0.999536 1.292093 6.195877
H    1.381424 -1.164912 6.310759
H    1.646092 -2.484797 4.219082
H    -3.227420 4.356684 -2.634988
C    -2.719829 3.399079 -2.565191
H    -3.990667 1.950638 -1.433831
H    0.197774 3.703858 -4.256529
C    -3.094907 2.227657 -1.981805
H    -0.447142 5.012730 -3.215243
C    -0.711167 4.180167 -3.876704
N    -1.478599 3.187846 -3.131800
H    -6.038518 -0.387288 2.187428
H    -6.079895 1.543309 3.780586
C    -5.191601 0.300852 2.231721
C    -5.218099 1.394970 3.128768
N    -2.074105 1.327541 -2.208665
H    -1.315428 4.544582 -4.715107
C    -1.104218 1.934761 -2.896555
C    -4.105992 0.093893 1.410510
C    -4.154591 2.266965 3.168494
H    -2.216104 -0.751526 -3.811364
H    -4.102450 -0.758072 0.730621
H    -4.160245 3.120235 3.850675
C    -2.013243 -0.040945 -1.773102
C    -2.077893 -1.042810 -2.769178
C    -2.986784 0.975375 1.430030
C    -3.030173 2.087510 2.320502
H    -0.156443 1.462293 -3.157332
C    -1.855325 0.800555 0.561216
C    -1.951051 3.017155 2.315896
C    -1.860647 -0.314956 -0.429539
C    -1.972519 -2.357773 -2.402554
H    -1.984602 3.866013 3.001106
H    -2.016730 -3.146746 -3.155126
C    -0.895669 2.855767 1.466048
C    -0.837660 1.746318 0.571066
C    -1.749349 -1.691936 -0.041726
C    -1.805281 -2.713022 -1.036156
O    0.231800 1.725636 -0.232746
H    -0.059585 3.558093 1.452218
C    -1.559889 -2.069496 1.315712
C    -1.683972 -4.074013 -0.643852
H    -1.473848 -1.287825 2.071653
H    -1.734049 -4.847390 -1.413315
C    -1.442432 -3.392512 1.666140
C    -1.507770 -4.406484 0.677544
H    -1.281097 -3.665409 2.710913
H    -1.414798 -5.453004 0.970288
H    2.816626 2.123843 0.166015
C    4.223595 -0.552950 1.387634
C    4.168865 -1.878951 0.785088
C    3.786243 -0.284410 -0.855167
C    3.803874 1.787325 0.517475
C    3.797557 -1.745570 -0.538093
N    3.928031 0.363565 0.348756
O    3.672479 0.264570 -1.935544
O    4.498628 -0.193927 2.518961
H    4.401507 -2.789183 1.331328
H    4.587402 2.326358 -0.036063
H    3.903780 -2.478021 -1.337215
H    3.902851 2.000181 1.588999
