          85
 
O       0.8625458     -0.1231430     -2.0665565
C       1.2630156     -1.2621858     -1.8640186
O       1.4571366     -2.1217368     -2.8689074
C       1.2813514     -1.6083530     -4.1879209
C       1.5055673     -2.7447236     -5.1561301
C       1.6505352     -1.8031811     -0.5659221
N       1.3284882     -1.0446289      0.5139274
C       1.5590160     -1.5556545      1.6800628
C       1.4185194     -0.7755094      2.9130950
C       1.2453360      0.6164559      2.8625840
C       1.0839425      1.3498625      4.0336867
C       1.1240673      0.7117709      5.2770293
C       1.3311536     -0.6674240      5.3375031
C       1.4775568     -1.4055540      4.1634229
H       0.2666534     -1.1927343     -4.2811387
H       1.9938215     -0.7835008     -4.3394226
H       1.3653692     -2.3942153     -6.1874641
H       0.7915298     -3.5573915     -4.9622373
H       2.5234841     -3.1447402     -5.0538181
H       0.4487934      0.8336669     -0.6026194
H       1.6408654     -2.9011569     -0.4960294
H       1.7723390     -2.6297853      1.7965994
H       1.2493798      1.0957690      1.8831127
H       0.9270104      2.4293254      3.9814637
H       0.9985024      1.2888062      6.1947950
H       1.3738925     -1.1689207      6.3062428
H       1.6377576     -2.4856037      4.2113222
H      -3.2277537      4.3571411     -2.6358465
C      -2.7199412      3.3997271     -2.5649827
H      -3.9915726      1.9515776     -1.4341081
H       0.1995962      3.7047013     -4.2530620
C      -3.0952889      2.2285471     -1.9812609
H      -0.4489963      5.0146482     -3.2154145
C      -0.7106749      4.1805034     -3.8757981
N      -1.4781306      3.1885627     -3.1302786
H      -6.0393627     -0.3883021      2.1881305
H      -6.0821338      1.5427701      3.7804928
C      -5.1928107      0.3002784      2.2323110
C      -5.2200785      1.3947604      3.1289511
N      -2.0740116      1.3286154     -2.2066431
H      -1.3140268      4.5424239     -4.7159343
C      -1.1036468      1.9357798     -2.8938988
C      -4.1068732      0.0935485      1.4115520
C      -4.1572486      2.2675002      3.1687129
H      -2.2170519     -0.7498023     -3.8094224
H      -4.1024805     -0.7587252      0.7320234
H      -4.1636933      3.1210101      3.8505643
C      -2.0130668     -0.0397539     -1.7711376
C      -2.0773452     -1.0413335     -2.7674908
C      -2.9883125      0.9757440      1.4313302
C      -3.0324678      2.0884503      2.3210820
H      -0.1556902      1.4641581     -3.1548567
C      -1.8560975      0.8010736      0.5637338
C      -1.9541940      3.0189974      2.3164728
C      -1.8598329     -0.3141288     -0.4276498
C      -1.9694680     -2.3563551     -2.4016756
H      -1.9890581      3.8684273      3.0008836
H      -2.0137176     -3.1451188     -3.1544768
C      -0.8976807      2.8574531      1.4679090
C      -0.8385955      1.7466558      0.5753248
C      -1.7464581     -1.6910573     -0.0405821
C      -1.8001740     -2.7117881     -1.0355234
O       0.2326070      1.7225134     -0.2272797
H      -0.0616902      3.5598627      1.4543337
C      -1.5590559     -2.0692528      1.3171263
C      -1.6782920     -4.0731510     -0.6434259
H      -1.4753457     -1.2877899      2.0735824
H      -1.7272529     -4.8462787     -1.4131938
C      -1.4412726     -3.3921394      1.6672677
C      -1.5043525     -4.4059734      0.6779900
H      -1.2821792     -3.6654976      2.7122510
H      -1.4115600     -5.4525328      0.9705638
H       2.8472992      2.1457114      0.1732329
C       4.2228184     -0.5644965      1.3855002
C       4.1367896     -1.8775925      0.7847305
C       3.7688219     -0.2717285     -0.8544988
C       3.8283914      1.7904685      0.5245518
C       3.7211779     -1.7363530     -0.5403101
N       3.9298838      0.3663830      0.3471948
O       3.6615786      0.2791270     -1.9358916
O       4.5124653     -0.1987102      2.5140039
H       4.3675358     -2.7946803      1.3199023
H       4.6208339      2.3227158     -0.0234076
H       3.8722558     -2.4549399     -1.3478487
H       3.9289285      1.9941238      1.5978260
