  85
G(CENSO)=       -2140.74306680  G(xTB)=        -135.55517556        !CONF14
O   -1.9110629787   2.4117003898  -0.7233195454
C   -3.0970321110   2.1530243440  -0.8873297194
O   -4.0415991241   3.1108585431  -0.9543695392
C   -3.6180007683   4.4701354384  -0.8075120845
C   -3.1990219237   5.0784790924  -2.1394355973
C   -3.6683811033   0.8317637221  -0.9968466574
N   -2.8226679388  -0.2177403932  -1.1022737344
C   -3.3284539141  -1.3914307718  -1.2998551498
C   -2.5268110688  -2.5923127381  -1.2782150833
C   -3.1277535838  -3.8304023307  -1.5122234779
C   -2.3845180254  -4.9933094534  -1.4572425537
C   -1.0307944799  -4.9410699992  -1.1669366955
C   -0.4234623833  -3.7167885913  -0.9293310205
C   -1.1617107516  -2.5529542264  -0.9827556367
H   -4.4860341543   4.9889432054  -0.3954161071
H   -2.7893997181   4.4982135167  -0.0935979555
H   -2.3285721642   4.5570240769  -2.5302301960
H   -2.9529254179   6.1265052721  -1.9968399862
H   -4.0096675437   4.9958749146  -2.8592054984
H   -0.7887067827   1.0006495289  -0.5176281856
H   -4.6585405980   0.7905043640  -1.4648562016
H   -4.3818425077  -1.5140912638  -1.5860748483
H   -4.1871113930  -3.8725114776  -1.7255741797
H   -2.8647778745  -5.9452148359  -1.6338941728
H   -0.4537145468  -5.8528468357  -1.1186551870
H    0.6298838498  -3.6725577161  -0.6922383581
H   -0.7074557358  -1.5953615756  -0.7886710197
H    1.9371831547   4.7646920654   1.3216741352
C    1.6935311159   3.7437000576   1.5292635795
H    3.4708623972   2.4913705868   1.1163628917
H   -1.5702100215   3.6158900682   2.1668751402
C    2.4556929606   2.6213868801   1.4280672032
H   -0.6963651024   4.9979433450   1.4594043291
C   -0.6615947703   4.2148372724   2.2140407555
N    0.4623613157   3.3569901259   1.9661601935
H    6.8520712768   0.3714670648  -1.5004551460
H    6.5433168235   1.5938395498  -3.6200395060
C    5.8567014023   0.6559409795  -1.8086788766
C    5.6824771094   1.3553031645  -3.0130727607
N    1.6755836745   1.5726942316   1.8171278742
H   -0.5800265065   4.6720676196   3.2012352261
C    0.4724855127   2.0426842922   2.1360598626
C    4.7801828911   0.3367142990  -1.0287381347
C    4.4298250624   1.7356800125  -3.4074033537
H    1.7589933716   0.0155001092   3.9345201758
H    4.9216552047  -0.2003596458  -0.1026917564
H    4.2856475436   2.2833712967  -4.3278253314
C    2.0637938747   0.2073580208   1.8165071583
C    2.0629685888  -0.4937207710   3.0335267782
C    3.4706543290   0.6969468386  -1.4178973505
C    3.2986606531   1.4277007185  -2.6235990141
H   -0.3865187919   1.4611338499   2.4147250914
C    2.3357679601   0.3869744613  -0.6287299570
C    2.0005071324   1.8350752144  -2.9982445142
C    2.4350063129  -0.3858616070   0.6285064590
C    2.4585678333  -1.7997206379   3.0599441617
H    1.8734068770   2.3844051599  -3.9197222907
H    2.4725467591  -2.3494064606   3.9883330141
C    0.9217736576   1.5520130317  -2.2126522396
C    1.0783721994   0.8303259849  -1.0142142556
C    2.8174887102  -1.7539955578   0.6391272086
C    2.8450613026  -2.4582476143   1.8730460915
O    0.0272148315   0.5410204066  -0.2176611081
H   -0.0740126347   1.8711736848  -2.4825549467
C    3.1501013280  -2.4472991587  -0.5446605477
C    3.2460478974  -3.8110028366   1.8805781635
H    3.0947679868  -1.9270383901  -1.4882884742
H    3.2716934263  -4.3371560821   2.8234844218
C    3.5292939271  -3.7606503355  -0.5031587196
C    3.5880419527  -4.4469465956   0.7199246544
H    3.7788342971  -4.2803060904  -1.4162944144
H    3.8928133056  -5.4827708420   0.7335649983
H   -1.3906299820  -0.8245792656   3.2781022639
C   -3.8142489703  -1.6593669479   1.3150808061
C   -4.8839624719  -0.8389751251   0.8702648799
C   -3.1676045288   0.5226016631   1.5714811629
C   -1.5256305963  -1.2125010947   2.2664390123
C   -4.4836958891   0.4883889623   0.8854638012
N   -2.7837133628  -0.7663319933   1.7264867746
O   -2.5276237875   1.4978991143   1.9507988046
O   -3.7166946630  -2.8734365588   1.4694229170
H   -5.8178899026  -1.2250185822   0.5072132959
H   -0.7073105895  -0.8884759434   1.6230631324
H   -5.1392662381   1.3430148953   0.8773514677
H   -1.5629644707  -2.3007771893   2.2906554272
