85
CONF40
O 0.8714279807 0.6138268749 -1.9920168151
C 1.5403764539 -0.4098108395 -2.1449255057
O 1.9729223355 -0.8083938516 -3.3636587756
C 1.6266921316 0.0493543423 -4.4796750624
C 2.1626186219 -0.6019520857 -5.7315473632
C 2.0004680958 -1.3069228232 -1.0965827475
N 1.4940310907 -1.0953308733 0.1469030528
C 1.7775559309 -1.9781324801 1.0615188594
C 1.4286606782 -1.7714384775 2.4579995099
C 0.9684528382 -0.5285387388 2.9270177836
C 0.6370580348 -0.3572978898 4.2637302761
C 0.7659771462 -1.4156485058 5.1663908190
C 1.2379733883 -2.6477004595 4.7161964077
C 1.5672609091 -2.8236511719 3.3765688703
H 0.5371120612 0.1581048089 -4.5174912147
H 2.0674173721 1.0388494515 -4.3167336783
H 1.9186072963 0.0214517675 -6.5975855499
H 1.7158223522 -1.5895011089 -5.8833226338
H 3.2501489745 -0.7121606900 -5.6835397507
H 0.1089101080 1.0480581441 -0.4260282903
H 2.2522877206 -2.3198956879 -1.4283590455
H 2.2029340254 -2.9574204302 0.8050254276
H 0.8852395847 0.2942511949 2.2244042616
H 0.2828950893 0.6095247182 4.6108381688
H 0.5094663910 -1.2767862519 6.2122131823
H 1.3497452351 -3.4738410629 5.4124800387
H 1.9367396736 -3.7851501663 3.0281954420
H -3.8592810437 4.5148880312 -1.6517801734
C -3.2488973900 3.6453060155 -1.8370017862
H -4.2778253481 1.8280084933 -1.0708466456
H -0.4319354138 4.7379752680 -3.3729222536
C -3.4546731883 2.3328571603 -1.5505837687
H -1.2657724091 5.6479516540 -2.0835058177
C -1.4008181963 4.9757176820 -2.9335932100
N -2.0246483201 3.7361058901 -2.4723327740
H -6.2994472603 -1.5326162621 1.4860257651
H -6.5817823636 -0.2178430337 3.5804168546
C -5.5337299529 -0.8222642687 1.7832584083
C -5.6977964113 -0.0753372732 2.9669331049
N -2.3502072928 1.6438176451 -2.0195579757
H -2.0421614996 5.4472156891 -3.6816368694
C -1.4956437618 2.5174794330 -2.5740938380
C -4.4143192408 -0.6618992173 0.9975393531
C -4.7374810220 0.8398214837 3.3313038223
H -2.0371933760 0.0440334996 -4.0724710270
H -4.3091592227 -1.2461062454 0.0895935930
H -4.8540512484 1.4357471733 4.2326488160
C -2.1113386820 0.2320196160 -1.9242170014
C -1.9388069157 -0.4782198079 -3.1267239755
C -3.3929006648 0.2545502652 1.3562235215
C -3.5807865723 1.0342628731 2.5415373580
H -0.5267388275 2.2613470847 -2.9794653547
C -2.2209503045 0.4423286273 0.5591373122
C -2.6030845030 2.0004379177 2.8849353135
C -2.0288072947 -0.3566989005 -0.6767268106
C -1.6575826525 -1.8175668874 -3.0800456072
H -2.7421647684 2.5922377061 3.7854158477
H -1.5168377120 -2.3806424926 -3.9977771268
C -1.5011519320 2.1897610444 2.1001283979
C -1.2946961939 1.4130910979 0.9306146498
C -1.7491997543 -1.7573171044 -0.6226587620
C -1.5512783961 -2.4873693998 -1.8382569320
O -0.1782061789 1.7177555565 0.2449316617
H -0.7453568165 2.9253676880 2.3573923890
C -1.6280592994 -2.4463311120 0.6080217318
C -1.2479902805 -3.8690927219 -1.7731150778
H -1.7491350598 -1.8969572054 1.5349606197
H -1.0951882047 -4.4119482545 -2.7015780350
C -1.3406347264 -3.7894920276 0.6367906404
C -1.1470294445 -4.5084876617 -0.5613540973
H -1.2452493690 -4.2998529366 1.5902553273
H -0.9143289784 -5.5680301587 -0.5213667586
H 4.8016932436 2.5712669355 1.3954340743
C 4.3858694789 -0.5249084566 1.4438626967
C 4.4404336839 -1.4811346591 0.3724521068
C 3.8933744456 0.5907029865 -0.5194741118
C 3.9010974438 1.9659482954 1.5629625816
C 4.0350805188 -0.8677082725 -0.8131721608
N 3.9599780530 0.7093559864 0.8523419424
O 3.7591518375 1.5200289755 -1.3085633577
O 4.6735815036 -0.6170059022 2.6368035246
H 4.7614814978 -2.5034350740 0.5154575812
H 3.8164968356 1.7497426138 2.6306775851
H 4.3192622225 -1.1735179552 -1.8133658321
H 3.0297583752 2.5424745716 1.2392085817
