85
Energy = 0.00 kcal/mol
O    0.397632 2.156880 0.656526
C    0.942484 2.546712 -0.366521
O    1.020012 3.849114 -0.674073
C    0.507553 4.778651 0.283037
C    1.507039 5.026236 1.395895
C    1.630040 1.694302 -1.332595
N    1.425515 0.354563 -1.201427
C    1.897094 -0.400641 -2.135596
C    1.892883 -1.861110 -2.019973
C    1.596322 -2.482192 -0.795258
C    1.540325 -3.869697 -0.708035
C    1.803253 -4.657613 -1.833797
C    2.136846 -4.047576 -3.044381
C    2.184380 -2.656926 -3.135339
H    0.303309 5.695199 -0.284797
H    -0.443627 4.393426 0.677487
H    1.076515 5.715042 2.136475
H    2.423853 5.479440 0.992594
H    1.776062 4.078709 1.883083
H    0.267803 0.365089 0.948335
H    1.746076 2.137300 -2.330944
H    2.239949 0.016331 -3.096760
H    1.415359 -1.848593 0.074917
H    1.292845 -4.345800 0.243718
H    1.752586 -5.745688 -1.766164
H    2.357163 -4.658527 -3.921813
H    2.441322 -2.178229 -4.084502
H    -3.725984 0.418810 4.740527
C    -3.210065 0.770583 3.852692
H    -4.247914 0.006517 2.025433
H    -1.102948 1.156101 5.729769
C    -3.467278 0.568802 2.530760
H    -2.179066 2.593585 5.754865
C    -1.454042 2.024770 5.162197
N    -2.087929 1.570891 3.928810
H    -5.721856 -2.826549 -1.342418
H    -5.462589 -4.979871 -0.097795
C    -4.854930 -2.977939 -0.697808
C    -4.710663 -4.196516 0.007169
N    -2.495858 1.254666 1.830855
H    -0.604585 2.665203 4.905089
C    -1.669047 1.845087 2.697837
C    -3.913909 -1.979815 -0.579641
C    -3.623547 -4.380700 0.829475
H    -2.877655 3.424237 0.383425
H    -4.041510 -1.048810 -1.134284
H    -3.499967 -5.311974 1.386423
C    -2.349023 1.321184 0.402324
C    -2.559090 2.573471 -0.219904
C    -2.775853 -2.142832 0.261261
C    -2.643884 -3.364776 0.982672
H    -0.784469 2.413879 2.408159
C    -1.796719 -1.106711 0.426506
C    -1.537009 -3.523681 1.865537
C    -1.971530 0.188630 -0.287778
C    -2.358526 2.690362 -1.569621
H    -1.428740 -4.461572 2.414175
H    -2.512478 3.647590 -2.069829
C    -0.626868 -2.519022 2.031350
C    -0.748572 -1.290170 1.317658
C    -1.773223 0.301542 -1.703071
C    -1.954913 1.564421 -2.339352
O    0.186179 -0.373809 1.598165
H    0.223930 -2.625661 2.706075
C    -1.373377 -0.812030 -2.491735
C    -1.729455 1.677372 -3.738595
H    -1.201235 -1.772714 -2.003349
H    -1.867924 2.650321 -4.214294
C    -1.169730 -0.674067 -3.843536
C    -1.346717 0.582636 -4.475416
H    -0.854028 -1.535982 -4.433561
H    -1.177263 0.677364 -5.549255
H    4.502314 -0.534551 2.416121
C    4.470209 -0.254569 -0.789805
C    4.319615 0.919900 -1.606776
C    3.510064 1.377044 0.529397
C    3.829240 -0.840385 1.599495
C    3.616932 1.892252 -0.880926
N    3.903903 0.067601 0.484569
O    3.132461 1.968176 1.525487
O    4.997014 -1.337672 -1.000714
H    4.683090 0.981757 -2.629459
H    4.129695 -1.830714 1.233697
H    3.672237 2.969327 -1.045447
H    2.798657 -0.883233 1.984438
