          85
 
O       0.3965333      2.1582214      0.6693927
C       0.9268021      2.5403814     -0.3694312
O       1.0162058      3.8485781     -0.6734788
C       0.5084864      4.7770304      0.2836199
C       1.5079145      5.0259114      1.3964598
C       1.5581339      1.6878326     -1.3476807
N       1.4197066      0.3558208     -1.2062701
C       1.8995945     -0.4025693     -2.1393582
C       1.8967717     -1.8599099     -2.0199711
C       1.5975367     -2.4824941     -0.7954651
C       1.5403299     -3.8697902     -0.7084325
C       1.8031135     -4.6591216     -1.8334713
C       2.1371591     -4.0486698     -3.0438239
C       2.1865015     -2.6583933     -3.1350220
H       0.3035848      5.6949274     -0.2825525
H      -0.4426034      4.3942374      0.6814019
H       1.0785872      5.7161767      2.1365856
H       2.4255125      5.4775125      0.9928052
H       1.7749219      4.0781096      1.8840069
H       0.2601012      0.3795077      0.9612955
H       1.7537019      2.1383907     -2.3310436
H       2.2293911      0.0153137     -3.1049647
H       1.4139378     -1.8492289      0.0744527
H       1.2909618     -4.3450907      0.2433636
H       1.7510962     -5.7471013     -1.7657323
H       2.3562201     -4.6596346     -3.9217150
H       2.4427403     -2.1804584     -4.0848177
H      -3.7259824      0.4191345      4.7404334
C      -3.2100418      0.7707859      3.8525680
H      -4.2479046      0.0067531      2.0253365
H      -1.1029040      1.1561461      5.7296454
C      -3.4672590      0.5690180      2.5306544
H      -2.1789130      2.5936208      5.7547407
C      -1.4539766      2.0247746      5.1619621
N      -2.0877765      1.5710386      3.9285681
H      -5.7217251     -2.8265144     -1.3424010
H      -5.4624688     -4.9798822     -0.0976991
C      -4.8548154     -2.9779074     -0.6977496
C      -4.7105725     -4.1964834      0.0072318
N      -2.4957715      1.2547813      1.8307267
H      -0.6045023      2.6652112      4.9048984
C      -1.6686549      1.8451978      2.6974798
C      -3.9137924     -1.9797556     -0.5795525
C      -3.6233707     -4.3805395      0.8295209
H      -2.8764500      3.4246233      0.3834227
H      -4.0413218     -1.0487612     -1.1342237
H      -3.4997247     -5.3118218      1.3864769
C      -2.3491399      1.3213446      0.4020659
C      -2.5589918      2.5736191     -0.2201367
C      -2.7756147     -2.1425647      0.2613424
C      -2.6437055     -3.3646025      0.9826417
H      -0.7831029      2.4122604      2.4057663
C      -1.7966319     -1.1062178      0.4264136
C      -1.5365428     -3.5232435      1.8652658
C      -1.9717130      0.1888836     -0.2880278
C      -2.3589413      2.6903099     -1.5698771
H      -1.4280282     -4.4610651      2.4140153
H      -2.5123365      3.6476963     -2.0699675
C      -0.6265482     -2.5184119      2.0308233
C      -0.7481868     -1.2888204      1.3176172
C      -1.7737870      0.3016371     -1.7034073
C      -1.9561672      1.5642577     -2.3397783
O       0.1862086     -0.3731017      1.5988430
H       0.2241603     -2.6251344      2.7056862
C      -1.3729377     -0.8116992     -2.4917316
C      -1.7303382      1.6772481     -3.7386786
H      -1.1992825     -1.7719495     -2.0029874
H      -1.8685172      2.6502642     -4.2143740
C      -1.1697652     -0.6739301     -3.8437050
C      -1.3470626      0.5825319     -4.4755016
H      -0.8528891     -1.5356825     -4.4333475
H      -1.1772295      0.6774287     -5.5492972
H       4.4963049     -0.5331256      2.4163703
C       4.4674680     -0.2620729     -0.7782692
C       4.3323121      0.9279758     -1.6032067
C       3.5209376      1.3825136      0.5259453
C       3.8238480     -0.8420250      1.6007175
C       3.6933135      1.9047780     -0.8706647
N       3.9033706      0.0625838      0.4826731
O       3.1351232      1.9673452      1.5208405
O       4.9928254     -1.3379841     -1.0035073
H       4.7064790      0.9840872     -2.6224868
H       4.1225597     -1.8346842      1.2401793
H       3.6757513      2.9777011     -1.0682825
H       2.7923123     -0.8811927      1.9825513
