85
CONF14
O 0.7550111635 -1.1799013166 1.0907159630
C 1.6789771471 -0.6278739500 1.6833130980
O 2.0896170142 -1.0294231841 2.9057866160
C 1.4251999455 -2.2023458342 3.4439109986
C 1.9998384487 -2.4556528860 4.8160629133
C 2.4920818262 0.4786890894 1.1745945553
N 2.0420592183 1.0408879637 0.0093375108
C 2.6379832939 2.1274208216 -0.3832323299
C 2.3942687646 2.7020253857 -1.6986744917
C 1.6284990254 2.0294794266 -2.6666670638
C 1.4165690088 2.5980659165 -3.9147998849
C 1.9679230964 3.8424378893 -4.2299531204
C 2.7381200487 4.5125147892 -3.2808776470
C 2.9499392740 3.9472016332 -2.0278529496
H 0.3467480983 -2.0124554836 3.4848529887
H 1.5998833172 -3.0449155623 2.7662658239
H 1.5224964419 -3.3395371515 5.2511033121
H 1.8198257600 -1.6053417268 5.4812092503
H 3.0773531423 -2.6388838286 4.7637242875
H 0.0575881163 -0.5735428109 -0.4851756018
H 2.9286297143 1.1151991130 1.9536800444
H 3.2915014697 2.7037601159 0.2850072855
H 1.2033830484 1.0624176558 -2.4165918848
H 0.8223767102 2.0675645643 -4.6538164806
H 1.8035759774 4.2807973102 -5.2096581000
H 3.1768196942 5.4770526350 -3.5196729192
H 3.5549546961 4.4689374596 -1.2901764187
H -2.8307136296 -4.7749442810 1.2247170417
C -2.8655394398 -3.7463901725 1.5473057540
H -1.0983211194 -2.6443688674 0.7567321963
H -5.6436146940 -3.4243714318 3.4618201232
C -2.0239046571 -2.7063635610 1.3060222982
H -4.6370901495 -4.8996237226 3.4351510632
C -5.0104607841 -4.0608654423 2.8434914463
N -3.8792259053 -3.2718695479 2.3569054605
H -6.8093022020 0.8421622505 0.8513520774
H -7.7704673693 -0.1220157519 -1.2317769835
C -6.1495516218 0.4166707039 0.1008281763
C -6.6956368168 -0.1245475276 -1.0803116179
N -2.5418237864 -1.6110165524 1.9749337707
H -5.5820682447 -4.4339274017 1.9907068482
C -3.6666298389 -1.9795642023 2.6056512398
C -4.7883371204 0.4213802554 0.3101894387
C -5.8584393207 -0.6416463396 -2.0422030375
H -1.5642996886 -0.3973630445 4.0985552109
H -4.3865338720 0.8570529298 1.2196311695
H -6.2622974443 -1.0505766381 -2.9646899169
C -1.9798135751 -0.2891294087 1.9828723490
C -1.4882063691 0.2091634083 3.2023205638
C -3.8979677267 -0.1216143326 -0.6515499698
C -4.4565402692 -0.6497368451 -1.8593523710
H -4.2992811306 -1.3302853191 3.1922420184
C -2.4831442094 -0.1390211822 -0.4577230830
C -3.5800123345 -1.1573999202 -2.8501321310
C -1.9102929877 0.4124726310 0.7955594910
C -0.8868774057 1.4413700320 3.2266150563
H -4.0001780036 -1.5524112359 -3.7709206057
H -0.4806173664 1.8333948912 4.1541974076
C -2.2270643163 -1.1551717149 -2.6574778276
C -1.6624989301 -0.6561515346 -1.4550241368
C -1.3148227237 1.7081395582 0.8201650903
C -0.7783970083 2.2147745311 2.0473761893
O -0.3214651720 -0.7303623680 -1.3849874215
H -1.5498538079 -1.5467791217 -3.4101123301
C -1.2478743313 2.5186690614 -0.3392403298
C -0.1602593779 3.4886774794 2.0537848282
H -1.6614986106 2.1423852452 -1.2691011583
H 0.2596542475 3.8585173359 2.9849689642
C -0.6579833701 3.7588214716 -0.2936566322
C -0.0992035291 4.2439065750 0.9074524392
H -0.6081737494 4.3663577695 -1.1920212610
H 0.3772273420 5.2193103165 0.9219324610
H 4.3957313633 -2.3593124093 -2.9795903407
C 4.8386304839 0.3482051848 -1.4801482872
C 4.9883027735 0.6237806396 -0.0870264896
C 3.7893015333 -1.3580372939 -0.3185845739
C 3.7135426677 -1.5165079746 -2.8027117991
C 4.2522359040 -0.3182525578 0.6607665082
N 4.0126579255 -0.8313680903 -1.5666503237
O 3.3101430567 -2.4628243091 -0.0816622358
O 5.3051393962 0.8863139172 -2.4863158436
H 5.5844572894 1.4431735714 0.2900927376
H 3.8183959588 -0.8012722420 -3.6228783513
H 4.5257987984 -0.6569164821 1.6555707123
H 2.6883090404 -1.8985925608 -2.7809469794
