85
Energy = 0.00 kcal/mol
O    0.943992 0.630589 -1.995404
C    1.570963 -0.408342 -2.155773
O    1.993858 -0.790501 -3.368281
C    1.738673 0.108344 -4.444796
C    2.238672 -0.529679 -5.719664
C    2.000468 -1.306923 -1.096583
N    1.489474 -1.073134 0.138593
C    1.760213 -1.934431 1.063302
C    1.399328 -1.705774 2.464745
C    0.962281 -0.442973 2.898519
C    0.591626 -0.241768 4.224322
C    0.670650 -1.291827 5.144304
C    1.129452 -2.542549 4.728064
C    1.493880 -2.746811 3.397975
H    0.657171 0.307934 -4.495078
H    2.246478 1.061306 -4.232638
H    2.055142 0.141006 -6.569653
H    1.717587 -1.478979 -5.906816
H    3.317189 -0.728136 -5.658455
H    0.317791 0.982465 -0.302301
H    2.240190 -2.328986 -1.419127
H    2.186524 -2.921248 0.818819
H    0.928962 0.369423 2.171471
H    0.243287 0.741144 4.550417
H    0.382102 -1.134265 6.184804
H    1.202583 -3.362686 5.444712
H    1.852334 -3.728099 3.075247
H    -3.693944 4.435540 -1.647740
C    -3.062054 3.565823 -1.798818
H    -4.150690 1.723805 -1.150549
H    -0.125098 4.672695 -3.073319
C    -3.288939 2.245552 -1.558671
H    -1.071899 5.582072 -1.855868
C    -1.132759 4.909262 -2.718265
N    -1.787387 3.668713 -2.318697
H    -6.150428 -1.570223 1.476088
H    -6.516682 -0.170586 3.516460
C    -5.392931 -0.844852 1.778195
C    -5.602399 -0.053418 2.932819
N    -2.146437 1.572750 -1.941950
H    -1.708901 5.378305 -3.523349
C    -1.250299 2.456230 -2.389764
C    -4.244366 -0.709854 1.030414
C    -4.651662 0.867960 3.305865
H    -1.822510 -0.038386 -4.003331
H    -4.106661 -1.323836 0.138951
H    -4.801301 1.497699 4.186078
C    -1.908321 0.159836 -1.845427
C    -1.726791 -0.559836 -3.049746
C    -3.234324 0.224794 1.399180
C    -3.459175 1.030991 2.552546
H    -0.238485 2.192420 -2.702079
C    -2.034018 0.397188 0.629902
C    -2.487916 2.011046 2.903875
C    -1.824825 -0.420749 -0.597752
C    -1.431536 -1.895543 -2.990503
H    -2.659534 2.628679 3.787746
H    -1.277220 -2.467325 -3.907288
C    -1.365564 2.185184 2.146031
C    -1.123230 1.380829 0.993246
C    -1.539871 -1.824081 -0.530096
C    -1.328611 -2.557364 -1.734700
O    -0.001154 1.675438 0.324446
H    -0.615969 2.935973 2.399608
C    -1.424811 -2.498215 0.715624
C    -1.008050 -3.940076 -1.657152
H    -1.550059 -1.930196 1.639107
H    -0.845191 -4.492714 -2.584832
C    -1.114633 -3.836046 0.758554
C    -0.902737 -4.565336 -0.438247
H    -1.009385 -4.334683 1.722918
H    -0.652859 -5.626208 -0.387700
H    4.110866 2.754912 1.317796
C    4.241668 -0.483400 1.455347
C    4.427361 -1.446360 0.392577
C    3.793409 0.587375 -0.535216
C    3.424017 1.920794 1.528143
C    4.035081 -0.867708 -0.813172
N    3.808172 0.721353 0.829925
O    3.596323 1.488956 -1.329226
O    4.430136 -0.557654 2.659299
H    4.805680 -2.449822 0.569779
H    3.443272 1.696538 2.602117
H    4.345808 -1.173355 -1.812963
H    2.406161 2.215953 1.231662
