          85
 
O       0.9450702      0.6161898     -1.9931610
C       1.5890299     -0.4070296     -2.1578264
O       2.0005550     -0.7913714     -3.3680909
C       1.7376404      0.1063400     -4.4466405
C       2.2385682     -0.5303290     -5.7211700
C       2.0678217     -1.2926975     -1.0859017
N       1.4951257     -1.0674378      0.1403699
C       1.7592987     -1.9302308      1.0608023
C       1.3954428     -1.7053563      2.4647682
C       0.9613710     -0.4424668      2.8980320
C       0.5916790     -0.2413502      4.2243006
C       0.6710767     -1.2924358      5.1427776
C       1.1291204     -2.5433713      4.7265387
C       1.4918727     -2.7471784      3.3956817
H       0.6551468      0.2996685     -4.4927420
H       2.2423969      1.0605028     -4.2332837
H       2.0525694      0.1405181     -6.5704100
H       1.7196751     -1.4807143     -5.9085029
H       3.3176248     -0.7255038     -5.6604359
H       0.3237471      0.9684071     -0.2822907
H       2.2325153     -2.3312557     -1.4183238
H       2.1948857     -2.9135464      0.8193219
H       0.9310127      0.3704834      2.1715296
H       0.2451449      0.7416031      4.5518436
H       0.3839071     -1.1351365      6.1837241
H       1.2033481     -3.3632030      5.4432549
H       1.8509779     -3.7278687      3.0720180
H      -3.6938813      4.4358384     -1.6475481
C      -3.0620649      3.5660630     -1.7986307
H      -4.1509398      1.7241548     -1.1503433
H      -0.1250655      4.6728256     -3.0732599
C      -3.2891079      2.2458164     -1.5584224
H      -1.0719385      5.5822323     -1.8559002
C      -1.1327396      4.9094294     -2.7182859
N      -1.7874550      3.6688987     -2.3185155
H      -6.1506555     -1.5703425      1.4761477
H      -6.5169240     -0.1708066      3.5164811
C      -5.3931644     -0.8449777      1.7782449
C      -5.6026329     -0.0535473      2.9328835
N      -2.1467117      1.5729073     -1.9417157
H      -1.7089631      5.3782509     -3.5234180
C      -1.2506755      2.4564134     -2.3895263
C      -4.2446147     -0.7099663      1.0305042
C      -4.6520717      0.8678999      3.3060404
H      -1.8246706     -0.0383594     -4.0031398
H      -4.1068940     -1.3239219      0.1390174
H      -4.8018169      1.4976124      4.1862343
C      -1.9085984      0.1601462     -1.8451400
C      -1.7273113     -0.5594762     -3.0495235
C      -3.2347937      0.2247472      1.3994618
C      -3.4596039      1.0310882      2.5527261
H      -0.2394862      2.1940501     -2.7036842
C      -2.0343777      0.3972994      0.6305360
C      -2.4888026      2.0114850      2.9041725
C      -1.8247425     -0.4203862     -0.5973529
C      -1.4307281     -1.8949814     -2.9904028
H      -2.6607834      2.6290682      3.7879854
H      -1.2770249     -2.4669108     -3.9071962
C      -1.3662709      2.1858214      2.1466017
C      -1.1239426      1.3807235      0.9947936
C      -1.5389001     -1.8234489     -0.5298157
C      -1.3263483     -2.5564356     -1.7344879
O      -0.0010744      1.6738615      0.3255802
H      -0.6165637      2.9364659      2.4001847
C      -1.4252585     -2.4981244      0.7158762
C      -1.0061974     -3.9395850     -1.6569962
H      -1.5525020     -1.9306885      1.6394184
H      -0.8435608     -4.4922055     -2.5847036
C      -1.1143967     -3.8356805      0.7586928
C      -0.9018302     -4.5649967     -0.4382768
H      -1.0106297     -4.3348890      1.7229156
H      -0.6525211     -5.6259685     -0.3876675
H       4.1193851      2.7549422      1.3226088
C       4.2447598     -0.4950261      1.4501651
C       4.4075113     -1.4499851      0.3958342
C       3.7808100      0.5919731     -0.5333082
C       3.4316754      1.9204011      1.5296610
C       3.9587015     -0.8768253     -0.8191215
N       3.8099408      0.7231169      0.8257037
O       3.5927870      1.4942694     -1.3308590
O       4.4360143     -0.5547349      2.6584889
H       4.7815350     -2.4565934      0.5634701
H       3.4533522      1.6903375      2.6024940
H       4.3324476     -1.1528704     -1.8108194
H       2.4138610      2.2208536      1.2371941
