  85
G(CENSO)=       -2140.74532283  G(xTB)=        -135.55321052        !CONF27
O   -1.6769966585   2.3776211816  -0.3775908086
C   -2.8229078656   2.1320822796  -0.7203344882
O   -3.7726219079   3.0857460518  -0.7822106492
C   -3.4132216031   4.3888791321  -0.3140270366
C   -4.6290067893   5.2922077948  -0.4125293318
C   -3.3764153908   0.8454343918  -1.0891593086
N   -2.5788465945  -0.2404508705  -1.2091952151
C   -3.1732239486  -1.3434104513  -1.5723599626
C   -2.5453280885  -2.6435017346  -1.6347516337
C   -3.1955448005  -3.6616639792  -2.3401907255
C   -2.6562592350  -4.9294181164  -2.4174143210
C   -1.4567009259  -5.2134700403  -1.7836083487
C   -0.8087007037  -4.2189570998  -1.0694770020
C   -1.3446462622  -2.9490130129  -0.9898260083
H   -3.0684367787   4.2953999427   0.7221870610
H   -2.5898955654   4.7675432676  -0.9319985265
H   -4.9733470366   5.3437949500  -1.4418264744
H   -4.3659549398   6.2884169905  -0.0702017890
H   -5.4335246793   4.9022557360   0.2045850016
H   -1.0199488118  -0.0578976654  -0.5333539628
H   -4.2851415152   0.9070020394  -1.6960646759
H   -4.1600603403  -1.2845550970  -2.0462577502
H   -4.1360769552  -3.4459877749  -2.8294611361
H   -3.1755858907  -5.7014084481  -2.9672481906
H   -1.0377506120  -6.2076063318  -1.8376595716
H    0.1188063959  -4.4345643655  -0.5591304737
H   -0.8419832078  -2.1921542917  -0.4127948060
H    2.8284878479   5.0654209324   1.9812807315
C    2.4796655886   4.0617310395   1.8542910261
H    4.0214818662   2.6684569588   2.6123927110
H   -0.0462223954   5.3487788578   1.6299879682
C    3.0694152759   2.8783678190   2.1716322135
H   -0.5197778720   4.1796928774   0.3749328034
C    0.3144919798   4.7254373176   0.8119549884
N    1.2699513576   3.7718015689   1.2987889634
H    6.5783871837   1.0944672368  -1.4849161253
H    6.0287131773   1.9716992748  -3.7223237927
C    5.5468685107   1.1235616541  -1.8039812022
C    5.2350323857   1.6222656219  -3.0785594370
N    2.2078233402   1.8885082009   1.7973337937
H    0.7747191631   5.3592691018   0.0545819276
C    1.1221075164   2.4542574670   1.2741655828
C    4.5578270167   0.6748072772  -0.9739306928
C    3.9349680481   1.6583231349  -3.5012310177
H    2.7787855262   0.6642899912   4.0404880083
H    4.7998796159   0.2823332110   0.0028671327
H    3.6861288580   2.0353758710  -4.4831262409
C    2.4653981512   0.4999675512   1.9196495742
C    2.7744567298  -0.0065846453   3.1955957874
C    3.2053232638   0.7025777373  -1.3794864731
C    2.8904642758   1.2022710246  -2.6711254229
H    0.2453294169   1.9436630538   0.9207674703
C    2.1591970142   0.2537931015  -0.5410131568
C    1.5416573833   1.2175931525  -3.0871879538
C    2.4460093004  -0.3049091124   0.8030193161
C    3.0448022544  -1.3346767271   3.3509172374
H    1.3067153999   1.5836499938  -4.0763311222
H    3.2777566455  -1.7361546976   4.3251146868
C    0.5458474863   0.7774349673  -2.2652392176
C    0.8444740591   0.3000411635  -0.9737040607
C    2.7165747033  -1.6904329456   0.9541631900
C    3.0176266596  -2.2080549855   2.2422903432
O   -0.1117220491  -0.1063455795  -0.1194515107
H   -0.4888007463   0.7857950232  -2.5751816301
C    2.6970442447  -2.5724077612  -0.1468508289
C    3.2850264127  -3.5860942085   2.3801933444
H    2.4618650264  -2.1795000177  -1.1243503516
H    3.5097408382  -3.9744287760   3.3627394598
C    2.9616093380  -3.9033280337   0.0210330073
C    3.2578047584  -4.4157525054   1.2939086652
H    2.9420819209  -4.5702508412  -0.8282476946
H    3.4610125783  -5.4703051042   1.4071349474
H   -1.7326279659  -2.2611274314   2.6386785224
C   -3.6892288425  -1.8062521953   1.0659591828
C   -4.7216426706  -1.0737711488   0.4104333950
C   -3.3431132983   0.4157245078   1.5046703200
C   -1.7093726735  -1.1828109733   2.4873651208
C   -4.4917178540   0.2868069136   0.5749760659
N   -2.8533095960  -0.8430356718   1.6793823480
O   -2.8922802070   1.4246735380   2.0283575083
O   -3.4981900162  -3.0102108726   1.1925933920
H   -5.5557063606  -1.5349783807  -0.0827051386
H   -1.7701236186  -0.6615934564   3.4432862791
H   -5.2291087838   1.0662610518   0.4857775609
H   -0.7890658692  -0.9006828000   1.9741468756
