85
Energy = 0.00 kcal/mol
O    -1.995505 1.883842 -1.869791
C    -3.202599 1.722505 -1.749980
O    -4.066633 2.730242 -1.922120
C    -3.521353 4.010961 -2.250705
C    -3.203968 4.113314 -3.729613
C    -3.857610 0.483626 -1.351338
N    -3.061680 -0.611275 -1.261403
C    -3.603760 -1.757425 -1.013159
C    -2.781836 -2.921328 -0.665751
C    -3.389953 -4.130528 -0.303452
C    -2.617551 -5.233900 0.057818
C    -1.225496 -5.140707 0.063976
C    -0.611451 -3.932935 -0.284328
C    -1.379377 -2.829728 -0.640309
H    -4.295789 4.731106 -1.960155
H    -2.624738 4.180573 -1.639355
H    -2.852095 5.126700 -3.967717
H    -4.101167 3.906353 -4.329322
H    -2.418479 3.397220 -4.005466
H    -0.885848 0.755543 -1.232526
H    -4.916322 0.398622 -1.627983
H    -4.692730 -1.909760 -1.076968
H    -4.480292 -4.199387 -0.297676
H    -3.104552 -6.169531 0.339244
H    -0.618323 -6.003450 0.345019
H    0.476358 -3.852203 -0.278396
H    -0.908176 -1.878418 -0.897012
H    2.152396 4.085164 3.634845
C    1.889774 3.183233 3.090912
H    3.435856 1.612214 3.454607
H    -1.086377 3.722982 1.582633
C    2.516433 1.976843 3.006416
H    0.222510 4.959987 1.485711
C    -0.223923 4.164593 2.093705
N    0.758457 3.104244 2.306094
H    6.818549 1.222910 -0.248311
H    6.792585 3.026460 -1.979120
C    5.874821 1.511429 -0.714291
C    5.861785 2.533455 -1.695517
N    1.750784 1.190751 2.166694
H    -0.530197 4.564914 3.066343
C    0.693105 1.897221 1.754962
C    4.710957 0.877296 -0.344468
C    4.674172 2.898003 -2.285242
H    1.921339 -0.823458 3.854600
H    4.737400 0.088703 0.409966
H    4.647948 3.685066 -3.042153
C    2.034065 -0.164084 1.789693
C    2.104951 -1.129637 2.823813
C    3.465993 1.230175 -0.941024
C    3.456168 2.260830 -1.926695
H    -0.122919 1.544685 1.116629
C    2.238291 0.590863 -0.584633
C    2.217564 2.623345 -2.526053
C    2.233581 -0.472636 0.459869
C    2.394173 -2.430863 2.508581
H    2.209310 3.417118 -3.276078
H    2.456398 -3.186914 3.292832
C    1.048962 2.000327 -2.178385
C    1.052079 0.962505 -1.199657
C    2.515792 -1.836818 0.123644
C    2.613106 -2.815623 1.156988
O    -0.075384 0.340070 -0.833848
H    0.096758 2.284019 -2.625448
C    2.728311 -2.238656 -1.224560
C    2.933288 -4.158286 0.814095
H    2.643339 -1.493548 -2.016906
H    3.006224 -4.899276 1.612474
C    3.035258 -3.544882 -1.525072
C    3.144386 -4.514408 -0.496482
H    3.193622 -3.840529 -2.563014
H    3.389819 -5.546387 -0.751329
H    -1.451210 -1.801397 2.493874
C    -3.830363 -1.166133 1.775986
C    -4.889550 -0.407712 1.162001
C    -2.944042 0.862740 1.142413
C    -1.353510 -0.766928 2.141085
C    -4.366683 0.787346 0.672383
N    -2.656558 -0.343648 1.701175
O    -2.164606 1.803767 1.037483
O    -3.813716 -2.254304 2.326780
H    -5.914335 -0.765254 1.106225
H    -0.982968 -0.135954 2.966550
H    -4.913570 1.711065 0.480466
H    -0.640930 -0.738453 1.302667
