85
Energy = 0.00 kcal/mol
O    0.685863 -2.717090 -0.031984
C    1.832532 -3.049902 -0.252073
O    2.166801 -4.281977 -0.662101
C    1.096292 -5.187110 -0.951475
C    0.698674 -5.077956 -2.409583
C    3.006374 -2.169372 -0.142039
N    2.771294 -0.938551 0.409311
C    3.807722 -0.210683 0.661533
C    3.700259 1.211155 1.011078
C    2.530448 1.940454 0.741835
C    2.461257 3.296223 1.049198
C    3.555209 3.945179 1.629884
C    4.726868 3.231589 1.884841
C    4.800871 1.876577 1.566792
H    1.480407 -6.185848 -0.709343
H    0.250481 -4.957737 -0.290010
H    1.529717 -5.382112 -3.061623
H    0.442138 -4.036568 -2.649199
H    -0.164408 -5.726446 -2.616357
H    -0.185353 -1.139400 -1.964118
H    3.946082 -2.695183 0.079999
H    4.820020 -0.645278 0.687702
H    1.697387 1.426971 0.255439
H    1.558053 3.863177 0.815911
H    3.498876 5.008303 1.869447
H    5.588745 3.734221 2.326706
H    5.722933 1.320331 1.752455
H    0.146838 -0.319816 5.023725
C    -0.056831 -0.076470 3.985978
H    -1.397923 1.704893 3.883875
H    1.218801 -2.617355 2.233041
C    -0.808148 0.912504 3.433208
H    1.054935 -2.502010 4.017295
C    1.342679 -1.969721 3.104450
N    0.454122 -0.823419 2.946252
H    -5.683814 -0.359404 3.474731
H    -6.082686 -2.818321 3.261905
C    -5.133383 -0.933148 2.727379
C    -5.361658 -2.326022 2.607659
N    -0.737583 0.743326 2.063846
H    2.381426 -1.625831 3.175733
C    0.036791 -0.314826 1.789064
C    -4.224836 -0.297915 1.911966
C    -4.670630 -3.053179 1.666384
H    -0.476280 3.349460 1.993467
H    -4.059031 0.777129 2.011198
H    -4.836950 -4.127657 1.562306
C    -1.387120 1.590317 1.109073
C    -1.141667 2.982600 1.210799
C    -3.485732 -1.027914 0.938460
C    -3.719204 -2.430326 0.816218
H    0.326617 -0.691099 0.801861
C    -2.505666 -0.413999 0.103304
C    -2.976399 -3.171935 -0.147596
C    -2.229465 1.048012 0.162087
C    -1.732254 3.838725 0.320190
H    -3.164398 -4.243852 -0.243184
H    -1.547331 4.912551 0.383319
C    -2.028236 -2.568345 -0.927886
C    -1.772073 -1.174619 -0.791209
C    -2.838569 1.937648 -0.782710
C    -2.583626 3.338468 -0.703848
O    -0.829481 -0.545977 -1.495677
H    -1.429752 -3.137704 -1.639628
C    -3.697638 1.456052 -1.809548
C    -3.187524 4.209996 -1.650757
H    -3.896099 0.385270 -1.874084
H    -2.981434 5.279414 -1.580053
C    -4.264365 2.323671 -2.712923
C    -4.007910 3.715644 -2.635619
H    -4.915135 1.939426 -3.499551
H    -4.462990 4.392616 -3.360672
H    0.868978 0.963246 -3.602058
C    3.800149 0.551084 -2.160371
C    4.470187 -0.699753 -2.001430
C    2.217020 -1.102679 -2.420335
C    1.400664 1.231157 -2.677344
C    3.514670 -1.740375 -2.024832
N    2.398263 0.234468 -2.368813
O    1.167273 -1.684129 -2.713713
O    4.183643 1.710056 -2.187887
H    5.544671 -0.784746 -1.866831
H    1.929289 2.182928 -2.810060
H    3.696735 -2.764647 -2.356633
H    0.657951 1.323225 -1.871952
