85
CONF29
O 1.4282351454 2.3247526487 1.3767264474
C 2.5693569829 2.5232690008 0.9515692944
O 3.3482847952 3.5093843175 1.4418585191
C 2.7954029312 4.2822759010 2.5397024124
C 3.8649400819 5.2457726167 2.9927460931
C 3.2628775221 1.7585695564 -0.0797603979
N 2.5521876537 0.7648445770 -0.6901295219
C 3.0966527173 0.2128844515 -1.7352194358
C 2.5157457432 -0.9525517963 -2.3865080410
C 1.3741437571 -1.5978723578 -1.8798786729
C 0.8520648418 -2.7146010844 -2.5170667769
C 1.4541317671 -3.2164878471 -3.6730477467
C 2.5901845023 -2.5890306101 -4.1820753076
C 3.1167457515 -1.4708694329 -3.5450765069
H 1.8992997038 4.8057351044 2.1872920533
H 2.5024212355 3.5956987767 3.3402982340
H 3.4820742456 5.8456294864 3.8244507301
H 4.1550048473 5.9241437057 2.1847127186
H 4.7539243320 4.7091536895 3.3378141574
H 0.3080661155 1.4753158256 0.4723217024
H 3.9890129633 2.3411196428 -0.6576403915
H 3.9845899069 0.6439052599 -2.2158090229
H 0.9088198645 -1.2112959890 -0.9797213225
H -0.0276012680 -3.2047575519 -2.1087785536
H 1.0447211116 -4.0919802069 -4.1677031428
H 3.0698448117 -2.9753001014 -5.0766796407
H 4.0071298314 -0.9884639011 -3.9407711945
H -3.1009497567 1.9330825983 4.3591804417
C -3.0713516546 2.0861070345 3.2920837732
H -4.2476928061 0.4985232647 2.2707396752
H -2.2261672560 4.5967520068 4.2256113202
C -3.6320765824 1.3838154530 2.2726874365
H -1.2438260621 4.8916113584 2.7636239331
C -1.5975328267 4.1333913088 3.4624355855
N -2.3842006456 3.1442883550 2.7265074518
H -5.4167321361 -3.7497753339 0.7324636108
H -3.9288917903 -5.0869141022 2.2119173607
C -4.4217767974 -3.3832965347 0.9674965248
C -3.5812316058 -4.1408286129 1.8092200973
N -3.2790971585 2.0279970478 1.0999286276
H -0.7441316316 3.6387488525 3.9321314448
C -2.5199055025 3.0910592767 1.4027041155
C -3.9966677715 -2.1840558340 0.4424280682
C -2.3268093294 -3.6708477441 2.1223046498
H -4.7453869179 3.3754377991 -0.6255262457
H -4.6578732243 -1.6128571301 -0.2014270181
H -1.6719923038 -4.2377630577 2.7789025013
C -3.5807427628 1.5995295795 -0.2373646067
C -4.3642227085 2.4483761838 -1.0408121270
C -2.7017142383 -1.6804734368 0.7291009923
C -1.8604872140 -2.4394711882 1.6052078483
H -2.0714968011 3.7648265552 0.6886117727
C -2.2306241316 -0.4425329784 0.2088761253
C -0.5840384826 -1.9262944463 1.9428819419
C -3.0722068903 0.3928292410 -0.6801311874
C -4.6467526168 2.0781572362 -2.3306254103
H 0.0512256976 -2.5036355409 2.6087268046
H -5.2572760810 2.7163222166 -2.9620769742
C -0.1471764425 -0.7257746632 1.4491726436
C -0.9715515569 0.0255985394 0.5716997233
C -3.3455139137 0.0130330087 -2.0283596678
C -4.1465377389 0.8638910730 -2.8566932481
O -0.5609166316 1.1999061361 0.0670036794
H 0.8349966667 -0.3366936130 1.7057965988
C -2.8110186156 -1.1733451281 -2.5883430546
C -4.4065663472 0.4764506926 -4.1941246011
H -2.1837207005 -1.8086428860 -1.9731817635
H -5.0209849393 1.1242778504 -4.8128880492
C -3.0733530266 -1.5138291691 -3.8935231976
C -3.8838742338 -0.6881339914 -4.7015863555
H -2.6500413027 -2.4230303791 -4.3091027129
H -4.0849961181 -0.9731054522 -5.7295306981
H 2.5928400591 -2.9472466781 1.2014331416
C 4.8025453975 -1.4349856807 0.2415126780
C 5.3618303676 -0.1357150455 0.0206136773
C 3.9204320734 -0.0183774666 1.8459961339
C 3.1932978331 -2.4095738024 1.9420183685
C 4.7701460676 0.7814023170 0.9000480441
N 3.8746515030 -1.2923330818 1.3289271350
O 3.3648456492 0.3628871416 2.8721208733
O 5.0252901497 -2.5310436473 -0.2757168155
H 6.1171407814 0.0605090712 -0.7277176193
H 2.5408600513 -2.0226573649 2.7283361756
H 5.2397683709 1.6856649183 1.2705647939
H 3.9052892403 -3.1149930845 2.3877942601
