85
Energy = 0.00 kcal/mol
O    0.534663 -2.466918 -0.121257
C    1.539674 -2.623577 -0.796983
O    1.587205 -3.528328 -1.790333
C    0.386838 -4.253851 -2.061405
C    0.673803 -5.214549 -3.191883
C    2.784236 -1.878022 -0.715904
N    2.973796 -0.945201 0.243022
C    4.153439 -0.405091 0.314892
C    4.434291 0.772744 1.136263
C    3.429276 1.410183 1.883915
C    3.709087 2.548962 2.631848
C    5.001385 3.084111 2.641194
C    6.004599 2.470139 1.889770
C    5.723101 1.327959 1.142363
H    0.072773 -4.779616 -1.146600
H    -0.402184 -3.533156 -2.319591
H    -0.228097 -5.794903 -3.428370
H    1.475730 -5.912498 -2.914424
H    0.982184 -4.668929 -4.094439
H    -0.894869 -0.795572 -1.905766
H    3.642455 -2.362335 -1.197200
H    5.005120 -0.832926 -0.237794
H    2.420445 0.998910 1.846218
H    2.914570 3.030418 3.206197
H    5.221416 3.979932 3.224154
H    7.013165 2.887424 1.881978
H    6.508428 0.858054 0.545845
H    0.356677 0.864736 4.464967
C    0.055226 0.820068 3.423066
H    -1.206388 2.595378 2.940021
H    2.291814 -1.008892 3.107434
C    -0.702491 1.670286 2.676768
H    1.232303 -2.072667 2.131767
C    1.261998 -1.359088 2.961397
N    0.415319 -0.225866 2.598480
H    -4.733688 0.708695 3.939068
H    -5.179003 -1.663190 4.598660
C    -4.410408 -0.105184 3.287835
C    -4.669042 -1.445535 3.659180
N    -0.787338 1.120421 1.409831
H    0.874661 -1.808619 3.882490
C    -0.088430 -0.021974 1.386683
C    -3.763623 0.185675 2.107751
C    -4.285597 -2.466561 2.821714
H    -0.712642 3.634279 0.632165
H    -3.596940 1.228221 1.833291
H    -4.491213 -3.507078 3.083116
C    -1.534313 1.650779 0.308941
C    -1.373642 3.024852 0.014443
C    -3.329437 -0.849283 1.230626
C    -3.619195 -2.196599 1.597467
H    0.072681 -0.682090 0.531019
C    -2.634953 -0.585585 -0.000510
C    -3.250884 -3.247653 0.710358
C    -2.373428 0.823346 -0.414067
C    -2.019666 3.564236 -1.065655
H    -3.490385 -4.276963 0.985110
H    -1.889508 4.618428 -1.316104
C    -2.602205 -2.978903 -0.461104
C    -2.262616 -1.643014 -0.817874
C    -3.050665 1.382996 -1.548756
C    -2.853008 2.755831 -1.884145
O    -1.609184 -1.473986 -1.981787
H    -2.308147 -3.776935 -1.141954
C    -3.934276 0.609855 -2.355048
C    -3.509088 3.300176 -3.022760
H    -4.112644 -0.433541 -2.097747
H    -3.340469 4.350038 -3.270026
C    -4.555326 1.163933 -3.448298
C    -4.336272 2.521295 -3.793490
H    -5.224494 0.554193 -4.056962
H    -4.831971 2.944721 -4.668152
H    1.307071 2.304009 0.155746
C    3.697088 1.380415 -1.898451
C    3.816556 0.104887 -2.567616
C    1.630577 0.372312 -1.836940
C    1.788891 2.612204 -0.782926
C    2.609964 -0.564899 -2.481041
N    2.334391 1.470015 -1.463758
O    0.423152 0.232434 -1.642744
O    4.486170 2.290573 -1.727609
H    4.738281 -0.229946 -3.035753
H    1.047089 3.131573 -1.407180
H    2.262767 -1.392021 -3.099273
H    2.625206 3.283576 -0.553301
