85
Energy = 0.00 kcal/mol
O    -1.803988 2.418611 -0.756012
C    -2.996094 2.192410 -0.905205
O    -3.909176 3.170484 -0.932457
C    -3.462747 4.516583 -0.768837
C    -4.543831 5.427363 -1.305310
C    -3.609256 0.869824 -1.018054
N    -2.758588 -0.179401 -1.168923
C    -3.274358 -1.338000 -1.421112
C    -2.484813 -2.572959 -1.371078
C    -3.104809 -3.802880 -1.628836
C    -2.380867 -4.992341 -1.559720
C    -1.026787 -4.967351 -1.223813
C    -0.404384 -3.744979 -0.949301
C    -1.124340 -2.555676 -1.019913
H    -3.278921 4.696935 0.301709
H    -2.509378 4.648528 -1.298847
H    -4.253545 6.477820 -1.170941
H    -5.491385 5.256395 -0.776227
H    -4.704741 5.242099 -2.376350
H    -0.783758 0.987187 -0.559705
H    -4.594716 0.859581 -1.502880
H    -4.326668 -1.439906 -1.731831
H    -4.167424 -3.821784 -1.883625
H    -2.876757 -5.942847 -1.764968
H    -0.457331 -5.897666 -1.171724
H    0.652178 -3.719258 -0.675045
H    -0.654644 -1.594536 -0.800251
H    1.933243 4.796861 1.144989
C    1.711166 3.764380 1.395819
H    3.540652 2.513365 1.110872
H    -0.610339 4.776757 2.936987
C    2.498279 2.654712 1.382463
H    -1.597886 3.584741 2.007330
C    -0.707493 4.223241 1.994877
N    0.457775 3.363642 1.815062
H    6.893560 0.268526 -1.495722
H    6.593500 1.445595 -3.681233
C    5.892156 0.553522 -1.823526
C    5.724461 1.224710 -3.060049
N    1.707153 1.602102 1.800914
H    -0.758764 4.921402 1.153076
C    0.474550 2.056820 2.045863
C    4.805394 0.258389 -1.032696
C    4.465287 1.600846 -3.464579
H    1.828060 0.118699 3.986409
H    4.948247 -0.258749 -0.082512
H    4.316290 2.127849 -4.409342
C    2.092765 0.220115 1.837037
C    2.098393 -0.438700 3.088574
C    3.486591 0.618821 -1.434302
C    3.324879 1.319470 -2.666016
H    -0.406231 1.470049 2.317934
C    2.335523 0.326120 -0.639132
C    2.020792 1.734256 -3.060330
C    2.430288 -0.407091 0.652417
C    2.461154 -1.759263 3.149194
H    1.904755 2.268916 -4.005847
H    2.478598 -2.284829 4.105861
C    0.929935 1.479078 -2.272877
C    1.083681 0.772314 -1.045724
C    2.807532 -1.788805 0.710014
C    2.831692 -2.459973 1.968915
O    0.033051 0.515448 -0.262229
H    -0.072234 1.806641 -2.553619
C    3.152801 -2.522161 -0.461390
C    3.227720 -3.825263 2.019573
H    3.108120 -2.024314 -1.429975
H    3.250498 -4.323228 2.990465
C    3.532150 -3.840593 -0.379443
C    3.577631 -4.499011 0.875284
H    3.794890 -4.388165 -1.286116
H    3.886943 -5.543912 0.926363
H    -1.324065 -0.811929 3.293320
C    -3.836646 -1.654201 1.392136
C    -4.885744 -0.818960 0.870107
C    -3.130681 0.530517 1.575962
C    -1.496191 -1.197052 2.275421
C    -4.446974 0.509296 0.851273
N    -2.771556 -0.766852 1.763913
O    -2.466634 1.501050 1.925344
O    -3.759528 -2.857073 1.583058
H    -5.843636 -1.212838 0.542017
H    -0.684051 -0.858791 1.612540
H    -5.078296 1.398596 0.860726
H    -1.509906 -2.293703 2.296623
