          85
 
O      -1.8149868      2.4113480     -0.7658474
C      -3.0073615      2.1933252     -0.8882939
O      -3.9130608      3.1699213     -0.9287736
C      -3.4632600      4.5182144     -0.7714891
C      -4.5449652      5.4280869     -1.3062216
C      -3.6433635      0.8546107     -0.9428108
N      -2.7581319     -0.1809584     -1.1572800
C      -3.2708983     -1.3333376     -1.4195457
C      -2.4816251     -2.5725905     -1.3748113
C      -3.1047359     -3.8001619     -1.6308462
C      -2.3821344     -4.9907911     -1.5600693
C      -1.0282382     -4.9658712     -1.2239329
C      -0.4037931     -3.7447232     -0.9496181
C      -1.1230145     -2.5549097     -1.0214726
H      -3.2763844      4.6971936      0.2984100
H      -2.5118564      4.6453620     -1.3056866
H      -4.2531296      6.4781564     -1.1728617
H      -5.4912253      5.2581113     -0.7747098
H      -4.7078497      5.2425932     -2.3768538
H      -0.7889234      0.9593409     -0.5695971
H      -4.5901051      0.8618409     -1.5118843
H      -4.3255543     -1.4384970     -1.7204400
H      -4.1676030     -3.8176802     -1.8843218
H      -2.8786493     -5.9411889     -1.7636195
H      -0.4599003     -5.8968471     -1.1706204
H       0.6523610     -3.7203813     -0.6740657
H      -0.6536410     -1.5941891     -0.7997388
H       1.9333947      4.7968612      1.1451745
C       1.7112479      3.7643520      1.3958457
H       3.5406752      2.5133463      1.1108658
H      -0.6088156      4.7775811      2.9375778
C       2.4982835      2.6546736      1.3824037
H      -1.5973979      3.5846721      2.0111186
C      -0.7071012      4.2234150      1.9959759
N       0.4578657      3.3635536      1.8152283
H       6.8936903      0.2684084     -1.4959929
H       6.5934476      1.4455022     -3.6814046
C       5.8922657      0.5535372     -1.8235899
C       5.7244351      1.2247466     -3.0601443
N       1.7071118      1.6020598      1.8009312
H      -0.7591076      4.9215783      1.1541511
C       0.4745433      2.0566472      2.0463953
C       4.8056648      0.2586376     -1.0325648
C       4.4653426      1.6009802     -3.4646513
H       1.8277119      0.1185340      3.9864014
H       4.9484733     -0.2584722     -0.0823704
H       4.3163380      2.1278683     -4.4094661
C       2.0929098      0.2201172      1.8371335
C       2.0983842     -0.4387368      3.0886060
C       3.4869343      0.6193360     -1.4340896
C       3.3249543      1.3197099     -2.6659149
H      -0.4070421      1.4703900      2.3184435
C       2.3360948      0.3263196     -0.6389724
C       2.0208615      1.7339913     -3.0603176
C       2.4306400     -0.4070459      0.6525797
C       2.4611647     -1.7592799      3.1491582
H       1.9045738      2.2686240     -4.0057990
H       2.4783916     -2.2849206      4.1057811
C       0.9298741      1.4779599     -2.2730870
C       1.0842377      0.7710575     -1.0463972
C       2.8076472     -1.7887790      0.7099849
C       2.8317172     -2.4599595      1.9688886
O       0.0347186      0.5114101     -0.2616088
H      -0.0721837      1.8042161     -2.5556393
C       3.1528588     -2.5221562     -0.4614356
C       3.2276902     -3.8252657      2.0195454
H       3.1084029     -2.0243310     -1.4300558
H       3.2503851     -4.3232261      2.9904344
C       3.5321190     -3.8406256     -0.3794699
C       3.5775872     -4.4990418      0.8752691
H       3.7949291     -4.3881911     -1.2861306
H       3.8868729     -5.5439460      0.9263607
H      -1.3269934     -0.8171434      3.2998136
C      -3.8513448     -1.6519416      1.3868038
C      -4.8751539     -0.8230723      0.8525213
C      -3.1179948      0.5306830      1.5686701
C      -1.5013593     -1.1982743      2.2805260
C      -4.4028791      0.5220553      0.7748933
N      -2.7730209     -0.7612683      1.7671368
O      -2.4599029      1.5047699      1.9258682
O      -3.7601979     -2.8571789      1.5893752
H      -5.8335183     -1.2073491      0.5147215
H      -0.6855794     -0.8619824      1.6205992
H      -5.0531251      1.4005054      0.8705853
H      -1.5216500     -2.2950421      2.2984690
