  85
G(CENSO)=       -2140.74545534  G(xTB)=        -135.55350591        !CONF25
O   -1.9285276358   1.8923407362  -1.8257411414
C   -3.1379234772   1.7011695467  -1.7851429449
O   -4.0174726711   2.6720776867  -2.0890731506
C   -3.4673666745   3.9497269987  -2.4306844339
C   -4.6097684140   4.9155257312  -2.6852551870
C   -3.7900533625   0.4722402040  -1.4008128212
N   -3.0163000628  -0.6238820501  -1.2428527142
C   -3.5828451889  -1.7598120916  -1.0055646694
C   -2.8107646850  -2.9361514429  -0.6803358340
C   -3.4598991341  -4.1359510000  -0.3855015326
C   -2.7339968998  -5.2575331422  -0.0336897652
C   -1.3512569955  -5.2000058557   0.0288129944
C   -0.6958228523  -4.0120282691  -0.2613270131
C   -1.4153004406  -2.8887259868  -0.6116501326
H   -2.8314442552   4.2856189620  -1.6039874801
H   -2.8386333698   3.8327356182  -3.3214925972
H   -5.2343229626   4.5474626957  -3.4946124581
H   -4.2065923145   5.8867852315  -2.9554728898
H   -5.2205530999   5.0152159035  -1.7923716224
H   -0.7225743021   0.7008636235  -1.2251648906
H   -4.8304284662   0.3736595417  -1.7319508871
H   -4.6668697385  -1.8960494357  -1.1204784004
H   -4.5397472489  -4.1761771897  -0.4223578094
H   -3.2496755211  -6.1783939848   0.1986793278
H   -0.7871943207  -6.0778699334   0.3076743163
H    0.3817978202  -3.9626608308  -0.2068277705
H   -0.9229169675  -1.9551375639  -0.8336253208
H    2.2966831528   4.0863573058   3.5615414727
C    2.0106037241   3.2053267636   3.0256983331
H    3.5234459129   1.6309131469   3.3839970798
H   -0.9717832827   3.7729100749   1.6235891399
C    2.6181673394   1.9911046041   2.9419177132
H    0.3333382551   4.9658136617   1.4222309820
C   -0.0767515414   4.1964871029   2.0769758442
N    0.8809469581   3.1430362680   2.2664129090
H    6.9361858330   1.1781983207  -0.3100600150
H    6.9052447052   2.8932008233  -2.0810038772
C    5.9976084683   1.4447201708  -0.7735047703
C    5.9811858018   2.4206970137  -1.7821156785
N    1.8490584913   1.2135015911   2.1260360715
H   -0.3308246244   4.6436204491   3.0368305696
C    0.8037958819   1.9343313803   1.7271485847
C    4.8399712519   0.8325717069  -0.3809897480
C    4.8017158775   2.7654606109  -2.3818944361
H    1.9695988826  -0.7668273394   3.8302907237
H    4.8576160307   0.0760088902   0.3895983815
H    4.7789975488   3.5138785107  -3.1612727463
C    2.1318208217  -0.1351019816   1.7815622800
C    2.1758763348  -1.0835846697   2.8199523836
C    3.6058552428   1.1652743048  -0.9816416188
C    3.5901820357   2.1524585456  -2.0018613893
H   -0.0123349690   1.5922590891   1.1161463063
C    2.3905968361   0.5515178674  -0.5928030179
C    2.3591806839   2.4885150512  -2.6046889593
C    2.3861012073  -0.4786432573   0.4733669526
C    2.4669439440  -2.3860095855   2.5378032526
H    2.3484368131   3.2377574451  -3.3829619344
H    2.5007438743  -3.1227393164   3.3254040308
C    1.1990705511   1.8823203838  -2.2208924893
C    1.2010639524   0.9036533357  -1.2061806786
C    2.6834715917  -1.8322575663   0.1664773003
C    2.7264716409  -2.7928925647   1.2116350390
O    0.0653420143   0.2922010809  -0.8016388911
H    0.2529838367   2.1401994126  -2.6708885192
C    2.9475295264  -2.2499747307  -1.1550717246
C    3.0382761889  -4.1321882044   0.8960717292
H    2.9074051472  -1.5192293083  -1.9484235217
H    3.0678387226  -4.8585614223   1.6949005559
C    3.2441072942  -3.5565389792  -1.4279024442
C    3.2927884049  -4.5056905772  -0.3945305869
H    3.4406429398  -3.8675441772  -2.4429958278
H    3.5280226692  -5.5331841201  -0.6290052745
H   -1.1247541367  -0.0945589216   2.9404286836
C   -3.8514719887  -1.1623247573   1.5789710485
C   -4.8910795545  -0.3840691567   1.0087752236
C   -2.9774765269   0.8939620085   1.0701146525
C   -1.4301253049  -0.7489217417   2.1217531972
C   -4.3726568267   0.8224410681   0.5644052480
N   -2.7002525220  -0.3217401686   1.5964081637
O   -2.2039622706   1.8458781650   1.0508686585
O   -3.8438926713  -2.2766236186   2.0957539325
H   -5.8933137610  -0.7429979725   0.8672851335
H   -0.6792396576  -0.7479530843   1.3315663754
H   -4.9432537607   1.7101975689   0.3492606030
H   -1.5700881190  -1.7647911455   2.4892806445
  85
G(CENSO)=       -2140.74539955  G(xTB)=        -135.55353586        !CONF18
O   -1.6449016320   2.3471946093  -0.8288616069
C   -2.7911832515   2.0780284934  -1.1475474385
O   -3.7224152032   3.0269088400  -1.4000733260
C   -3.3813422090   4.3871702725  -1.1208429817
C   -3.7481610255   4.7505837787   0.3128222500
C   -3.3798963222   0.7637143773  -1.2802074958
N   -2.6086636515  -0.3492254261  -1.3016737494
C   -3.2365686994  -1.4780124244  -1.4641266263
C   -2.6305743712  -2.7877884075  -1.3948794473
C   -3.3815073073  -3.8876200954  -1.8232639372
C   -2.8654203668  -5.1662644065  -1.7669440603
C   -1.5865988766  -5.3785097150  -1.2764884473
C   -0.8354294678  -4.3001297483  -0.8376222179
C   -1.3486787237  -3.0196444110  -0.8902772266
H   -2.3098097153   4.5236028941  -1.3005453846
H   -3.9537589883   4.9782003128  -1.8393605417
H   -4.8264654010   4.7058305050   0.4439983984
H   -3.4026695599   5.7547105410   0.5380113927
H   -3.2900293408   4.0405871582   0.9990755666
H   -0.9889237030  -0.0805188884  -0.7880571334
H   -4.3360678955   0.7546618467  -1.8129391086
H   -4.2684099371  -1.4669440146  -1.8342039918
H   -4.3827884648  -3.7276955842  -2.2002805099
H   -3.4640258280  -6.0017464704  -2.1009191525
H   -1.1840630068  -6.3796380666  -1.2278414292
H    0.1580070288  -4.4564731161  -0.4421892011
H   -0.7624682271  -2.1938662846  -0.5268592490
H    2.3472027552   4.9025788791   2.4218817416
C    2.0688343030   3.8985106149   2.1777970574
H    3.6694156205   2.5278697095   2.8523024763
H   -0.8537020053   3.9917102355   0.5577066479
C    2.7222609606   2.7262059296   2.3958183987
H    0.3457039353   5.3088999093   0.5117530295
C   -0.1027981983   4.5322639252   1.1298501880
N    0.9004218664   3.5958134258   1.5460623150
H    6.6205437505   1.3620053370  -1.1659996020
H    6.1915929225   2.3904313735  -3.3649739802
C    5.6122110135   1.3847763864  -1.5526229025
C    5.3691092228   1.9698536389  -2.8053572319
N    1.9393316673   1.7312468412   1.8863489463
H   -0.5744958689   4.9903267078   1.9990632054
C    0.8386381196   2.2827718053   1.3793921848
C    4.5859007470   0.8458291606  -0.8283290404
C    4.0998172948   2.0002592950  -3.3133172322
H    2.4066581984   0.3285344642   4.0414234991
H    4.7746338538   0.3884392961   0.1318843776
H    3.9046199794   2.4440282088  -4.2793584500
C    2.2714793518   0.3525667230   1.8961966373
C    2.5030559283  -0.2595562675   3.1421361775
C    3.2635648653   0.8651597757  -1.3236947879
C    3.0182339672   1.4519133584  -2.5937625730
H    0.0067616054   1.7624225186   0.9416794278
C    2.1794368145   0.3241515122  -0.5962603890
C    1.7013987956   1.4556163632  -3.1020553522
C    2.3883884961  -0.3410659241   0.7133521601
C    2.8265093456  -1.5834519080   3.1989929918
H    1.5219272158   1.8853415475  -4.0771519557
H    3.0008518580  -2.0648481885   4.1488865213
C    0.6678348922   0.9241893934  -2.3871118928
C    0.8960499023   0.3658832667  -1.1147322901
C    2.7083724406  -1.7240915574   0.7610954626
C    2.9267669247  -2.3493181097   2.0175871332
O   -0.0923138779  -0.1393669304  -0.3554139866
H   -0.3419072424   0.9235368700  -2.7702851377
C    2.8089091278  -2.5011115226  -0.4121918685
C    3.2376492511  -3.7246888529   2.0526910393
H    2.6369617107  -2.0269782595  -1.3665145547
H    3.4009162208  -4.1944626717   3.0115111417
C    3.1064154159  -3.8339086471  -0.3434101899
C    3.3241693288  -4.4517132437   0.8981293996
H    3.1723066804  -4.4210764477  -1.2474118447
H    3.5567198276  -5.5057469211   0.9327032365
H   -0.6079037935  -0.8637474893   1.7735543145
C   -3.6466256668  -1.5689346567   1.2299873052
C   -4.6810822720  -0.8239035894   0.5975432186
C   -3.0743557208   0.6462307618   1.3501579125
C   -1.4980391415  -0.9693750455   2.3943330388
C   -4.3236789235   0.5171298154   0.5565232233
N   -2.6767419132  -0.6201009367   1.6424549832
O   -2.4868517108   1.6632789695   1.6941512083
O   -3.5422270243  -2.7617985519   1.4944601883
H   -5.5859961797  -1.2630188168   0.2229192385
H   -1.6102290292  -2.0086685581   2.6997993817
H   -5.0027896916   1.3446422717   0.4387844082
H   -1.4188233625  -0.3215616534   3.2679352110
  85
G(CENSO)=       -2140.74532283  G(xTB)=        -135.55321052        !CONF27
O   -1.6769966585   2.3776211816  -0.3775908086
C   -2.8229078656   2.1320822796  -0.7203344882
O   -3.7726219079   3.0857460518  -0.7822106492
C   -3.4132216031   4.3888791321  -0.3140270366
C   -4.6290067893   5.2922077948  -0.4125293318
C   -3.3764153908   0.8454343918  -1.0891593086
N   -2.5788465945  -0.2404508705  -1.2091952151
C   -3.1732239486  -1.3434104513  -1.5723599626
C   -2.5453280885  -2.6435017346  -1.6347516337
C   -3.1955448005  -3.6616639792  -2.3401907255
C   -2.6562592350  -4.9294181164  -2.4174143210
C   -1.4567009259  -5.2134700403  -1.7836083487
C   -0.8087007037  -4.2189570998  -1.0694770020
C   -1.3446462622  -2.9490130129  -0.9898260083
H   -3.0684367787   4.2953999427   0.7221870610
H   -2.5898955654   4.7675432676  -0.9319985265
H   -4.9733470366   5.3437949500  -1.4418264744
H   -4.3659549398   6.2884169905  -0.0702017890
H   -5.4335246793   4.9022557360   0.2045850016
H   -1.0199488118  -0.0578976654  -0.5333539628
H   -4.2851415152   0.9070020394  -1.6960646759
H   -4.1600603403  -1.2845550970  -2.0462577502
H   -4.1360769552  -3.4459877749  -2.8294611361
H   -3.1755858907  -5.7014084481  -2.9672481906
H   -1.0377506120  -6.2076063318  -1.8376595716
H    0.1188063959  -4.4345643655  -0.5591304737
H   -0.8419832078  -2.1921542917  -0.4127948060
H    2.8284878479   5.0654209324   1.9812807315
C    2.4796655886   4.0617310395   1.8542910261
H    4.0214818662   2.6684569588   2.6123927110
H   -0.0462223954   5.3487788578   1.6299879682
C    3.0694152759   2.8783678190   2.1716322135
H   -0.5197778720   4.1796928774   0.3749328034
C    0.3144919798   4.7254373176   0.8119549884
N    1.2699513576   3.7718015689   1.2987889634
H    6.5783871837   1.0944672368  -1.4849161253
H    6.0287131773   1.9716992748  -3.7223237927
C    5.5468685107   1.1235616541  -1.8039812022
C    5.2350323857   1.6222656219  -3.0785594370
N    2.2078233402   1.8885082009   1.7973337937
H    0.7747191631   5.3592691018   0.0545819276
C    1.1221075164   2.4542574670   1.2741655828
C    4.5578270167   0.6748072772  -0.9739306928
C    3.9349680481   1.6583231349  -3.5012310177
H    2.7787855262   0.6642899912   4.0404880083
H    4.7998796159   0.2823332110   0.0028671327
H    3.6861288580   2.0353758710  -4.4831262409
C    2.4653981512   0.4999675512   1.9196495742
C    2.7744567298  -0.0065846453   3.1955957874
C    3.2053232638   0.7025777373  -1.3794864731
C    2.8904642758   1.2022710246  -2.6711254229
H    0.2453294169   1.9436630538   0.9207674703
C    2.1591970142   0.2537931015  -0.5410131568
C    1.5416573833   1.2175931525  -3.0871879538
C    2.4460093004  -0.3049091124   0.8030193161
C    3.0448022544  -1.3346767271   3.3509172374
H    1.3067153999   1.5836499938  -4.0763311222
H    3.2777566455  -1.7361546976   4.3251146868
C    0.5458474863   0.7774349673  -2.2652392176
C    0.8444740591   0.3000411635  -0.9737040607
C    2.7165747033  -1.6904329456   0.9541631900
C    3.0176266596  -2.2080549855   2.2422903432
O   -0.1117220491  -0.1063455795  -0.1194515107
H   -0.4888007463   0.7857950232  -2.5751816301
C    2.6970442447  -2.5724077612  -0.1468508289
C    3.2850264127  -3.5860942085   2.3801933444
H    2.4618650264  -2.1795000177  -1.1243503516
H    3.5097408382  -3.9744287760   3.3627394598
C    2.9616093380  -3.9033280337   0.0210330073
C    3.2578047584  -4.4157525054   1.2939086652
H    2.9420819209  -4.5702508412  -0.8282476946
H    3.4610125783  -5.4703051042   1.4071349474
H   -1.7326279659  -2.2611274314   2.6386785224
C   -3.6892288425  -1.8062521953   1.0659591828
C   -4.7216426706  -1.0737711488   0.4104333950
C   -3.3431132983   0.4157245078   1.5046703200
C   -1.7093726735  -1.1828109733   2.4873651208
C   -4.4917178540   0.2868069136   0.5749760659
N   -2.8533095960  -0.8430356718   1.6793823480
O   -2.8922802070   1.4246735380   2.0283575083
O   -3.4981900162  -3.0102108726   1.1925933920
H   -5.5557063606  -1.5349783807  -0.0827051386
H   -1.7701236186  -0.6615934564   3.4432862791
H   -5.2291087838   1.0662610518   0.4857775609
H   -0.7890658692  -0.9006828000   1.9741468756
  85
G(CENSO)=       -2140.74525672  G(xTB)=        -135.55307756        !CONF32
O   -1.6977231016   2.3881369572  -0.2882972230
C   -2.8488771769   2.1446903941  -0.6148106932
O   -3.8102653165   3.0872922198  -0.6068475989
C   -3.4582392759   4.3663455922  -0.0708845087
C   -4.7092367232   5.2227039375   0.0024857394
C   -3.3928499538   0.8699050362  -1.0373093990
N   -2.5852074524  -0.2029544428  -1.1967043911
C   -3.1697403207  -1.2965087745  -1.6034593853
C   -2.5292932614  -2.5875310504  -1.7116324478
C   -3.1548873592  -3.5784456662  -2.4756507042
C   -2.6021026885  -4.8368032956  -2.5978158280
C   -1.4141246818  -5.1390592947  -1.9506769742
C   -0.7911995262  -4.1723717653  -1.1784978160
C   -1.3402698984  -2.9116171918  -1.0544320293
H   -3.0220870756   4.2108475605   0.9224118623
H   -2.7063139786   4.8241277220  -0.7254350970
H   -4.4522327209   6.2032571248   0.3914714234
H   -5.4400706116   4.7579301507   0.6582648105
H   -5.1465922771   5.3301335776  -0.9863755827
H   -1.0292385314  -0.0356001980  -0.5004067854
H   -4.2998519788   0.9485987618  -1.6447502899
H   -4.1524725296  -1.2268171440  -2.0845046613
H   -4.0865913979  -3.3487241554  -2.9753363966
H   -3.1020610183  -5.5876440568  -3.1930227989
H   -0.9850469052  -6.1263600632  -2.0395881411
H    0.1258599626  -4.4033409638  -0.6564179397
H   -0.8580863767  -2.1774664721  -0.4322741390
H    2.9193548302   5.1298430788   1.7543775055
C    2.5544802901   4.1267466384   1.6778567818
H    4.0869982215   2.7466190832   2.4777007895
H    0.0643450066   5.4572764290   1.4202827649
C    3.1319051004   2.9503460174   2.0406117731
H   -0.4742419214   4.2229871860   0.2564143212
C    0.3850520618   4.7744519902   0.6337840387
N    1.3328837632   3.8299226636   1.1526909082
H    6.5725522792   0.9783731261  -1.5611248821
H    6.0112516479   1.7844444699  -3.8223129900
C    5.5382198479   1.0107123262  -1.8706135750
C    5.2197634582   1.4688438136  -3.1586962413
N    2.2511611154   1.9574608950   1.7233763403
H    0.8361231813   5.3475570609  -0.1758666092
C    1.1662435329   2.5147832386   1.1899059833
C    4.5520176629   0.6051147404  -1.0153327705
C    3.9158926257   1.5081165450  -3.5691716444
H    2.8311523145   0.8180503902   4.0096503630
H    4.7992440994   0.2436583183  -0.0279208957
H    3.6617061489   1.8540206957  -4.5611076209
C    2.4912776711   0.5717409153   1.9008730695
C    2.8086540505   0.1135915805   3.1928350746
C    3.1957646446   0.6372781945  -1.4078939540
C    2.8742154145   1.0957849120  -2.7130667827
H    0.2773881896   2.0009632932   0.8730200071
C    2.1527304254   0.2321895089  -0.5434340063
C    1.5213539955   1.1160573715  -3.1155090658
C    2.4480856238  -0.2774794966   0.8181369448
C    3.0645662576  -1.2105216504   3.3987585013
H    1.2806865231   1.4516361196  -4.1140206819
H    3.3036541741  -1.5753789254   4.3857885513
C    0.5286896541   0.7184294059  -2.2685624105
C    0.8343483975   0.2802243747  -0.9646572142
C    2.7057278764  -1.6585762780   1.0218203133
C    3.0155583859  -2.1272881935   2.3265192746
O   -0.1199389862  -0.0847496948  -0.0895104473
H   -0.5091445081   0.7303082432  -2.5676240598
C    2.6671674407  -2.5832605405  -0.0431032038
C    3.2708136238  -3.5014132006   2.5167662917
H    2.4258765781  -2.2270620943  -1.0331699917
H    3.5014623266  -3.8525640289   3.5118572497
C    2.9224602258  -3.9086653328   0.1750847848
C    3.2255014905  -4.3731720198   1.4646292368
H    2.8908706824  -4.6085643766  -0.6469136554
H    3.4202392041  -5.4242700829   1.6176768669
H   -1.7293500867  -2.3386690213   2.5917660187
C   -3.6804769929  -1.8630608951   1.0172166866
C   -4.7189894237  -1.1260030957   0.3761067988
C   -3.3782057526   0.3476706586   1.5372049126
C   -1.7232716760  -1.2556746791   2.4763188531
C   -4.5156131103   0.2318159137   0.5928222665
N   -2.8673581438  -0.9079464350   1.6718582141
O   -2.9503380185   1.3452051419   2.1004663246
O   -3.4687783179  -3.0671549906   1.1020758329
H   -5.5424626690  -1.5842788869  -0.1371200437
H   -1.7985505793  -0.7673128660   3.4484132594
H   -5.2658392574   1.0010042689   0.5247593641
H   -0.8044598155  -0.9408872982   1.9795594334
  85
G(CENSO)=       -2140.74517156  G(xTB)=        -135.55371125        !CONF16
O   -1.6013169139   2.3178453326  -0.8490006855
C   -2.7395201045   2.0630024475  -1.2059616242
O   -3.6411098576   3.0227203283  -1.5172660686
C   -3.2837431013   4.3832491978  -1.2598405285
C   -3.7403473109   4.8036349615   0.1317760103
C   -3.3479794800   0.7564508317  -1.3269965510
N   -2.5943024775  -0.3685471387  -1.3069402515
C   -3.2370493743  -1.4908103372  -1.4578815727
C   -2.6551912368  -2.8086914076  -1.3473548610
C   -3.4254414205  -3.9062875643  -1.7463448177
C   -2.9349245433  -5.1924581083  -1.6488128758
C   -1.6621493753  -5.4145721093  -1.1471247038
C   -0.8914088853  -4.3380860568  -0.7386975961
C   -1.3796706352  -3.0500120727  -0.8310949810
H   -2.1988377420   4.4860707747  -1.3667192673
H   -3.7879769555   4.9643329650  -2.0354372974
H   -3.3883195372   5.8076874745   0.3469194526
H   -3.3459898804   4.1094779563   0.8716118637
H   -4.8258427387   4.7853041435   0.1889869512
H   -0.9722542266  -0.1220234778  -0.7931056837
H   -4.2899753982   0.7518548792  -1.8843915991
H   -4.2606436124  -1.4713200162  -1.8497913183
H   -4.4220573658  -3.7385269927  -2.1321779303
H   -3.5487749957  -6.0258471438  -1.9595246161
H   -1.2794804366  -6.4214131173  -1.0665753625
H    0.0978977065  -4.5018165135  -0.3359425962
H   -0.7777522619  -2.2254660212  -0.4913306828
H    2.2419438952   4.8337214729   2.5957910852
C    1.9916404853   3.8342011112   2.3067482874
H    3.6088925143   2.4747074246   2.9627029356
H    0.2616977164   5.2517881329   0.6327583760
C    2.6670639266   2.6689807787   2.4936183505
H   -0.6491544087   4.8963194903   2.1176190569
C   -0.1734846310   4.4591046681   1.2400508668
N    0.8437785310   3.5305661448   1.6390216892
H    6.6104238527   1.4647296047  -1.1292058133
H    6.1680203181   2.5135700030  -3.3159223135
C    5.6033601000   1.4711469937  -1.5197483972
C    5.3526859071   2.0676508596  -2.7655414388
N    1.9180872492   1.6771822115   1.9293411777
H   -0.9185701786   3.9168653391   0.6620942108
C    0.8159765594   2.2241817627   1.4201100686
C    4.5860123011   0.9006557824  -0.8070297817
C    4.0850837522   2.0772846169  -3.2785227152
H    2.4134472603   0.2359089370   4.0487050323
H    4.7808457760   0.4346381391   0.1477851403
H    3.8841337961   2.5296033934  -4.2394189287
C    2.2790795988   0.3062012604   1.9042309631
C    2.5241591966  -0.3290367036   3.1363269506
C    3.2654455404   0.8984669391  -1.3074367057
C    3.0128261431   1.4961217196  -2.5709123461
H    0.0055922102   1.7051296661   0.9431289709
C    2.1900222836   0.3261955331  -0.5908028938
C    1.6987153650   1.4759342328  -3.0856726473
C    2.4111941490  -0.3586392092   0.7065781403
C    2.8781855408  -1.6458907723   3.1642918336
H    1.5142875908   1.9115667270  -4.0572330570
H    3.0631784779  -2.1439844131   4.1035103775
C    0.6739792505   0.9139601325  -2.3815720020
C    0.9078492302   0.3483330401  -1.1134169025
C    2.7631219529  -1.7349108709   0.7241484274
C    2.9967753055  -2.3827498517   1.9662822499
O   -0.0739937136  -0.1835100192  -0.3633617915
H   -0.3330803679   0.8938347471  -2.7711716360
C    2.8815663778  -2.4835392826  -0.4659328279
C    3.3409674690  -3.7506142420   1.9710610629
H    2.6986605545  -1.9927506443  -1.4097223634
H    3.5162612183  -4.2371989245   2.9193293387
C    3.2105941687  -3.8100567949  -0.4267130031
C    3.4441425683  -4.4497447175   0.8007402961
H    3.2894231230  -4.3754461167  -1.3434002889
H    3.7023753541  -5.4982994848   0.8118702189
H   -1.4761779294  -0.2227430222   3.2557773520
C   -3.6937187603  -1.5125892264   1.2240075173
C   -4.7103298789  -0.7748421172   0.5545100145
C   -3.1096138753   0.7010643237   1.3074060164
C   -1.5575931890  -0.9013815373   2.4061727218
C   -4.3415975565   0.5622256112   0.4897780746
N   -2.7242474698  -0.5614855411   1.6316294089
O   -2.5251051642   1.7217833077   1.6456543898
O   -3.6039976781  -2.6993621786   1.5191732283
H   -5.6115860403  -1.2157547194   0.1733030724
H   -0.6608662866  -0.8328452847   1.7891973844
H   -5.0114254689   1.3915085020   0.3366187549
H   -1.6878137323  -1.9270336224   2.7484901970
  85
G(CENSO)=       -2140.74469589  G(xTB)=        -135.55331593        !CONF23
O   -1.9646479004   1.8292477350  -1.9122045467
C   -3.1720880765   1.6286894417  -1.8880772890
O   -4.0673469382   2.5792030597  -2.2214327265
C   -3.5618196398   3.8961528595  -2.4681242714
C   -3.4198718036   4.6743234240  -1.1669850366
C   -3.8139824787   0.3982494474  -1.4926980938
N   -3.0302173719  -0.6844540848  -1.2975368118
C   -3.5874418734  -1.8185652082  -1.0310146802
C   -2.8072520696  -2.9774969254  -0.6654239038
C   -3.4477003796  -4.1755006226  -0.3452854376
C   -2.7146966096  -5.2800191533   0.0437149250
C   -1.3333150232  -5.2069203384   0.1190641019
C   -0.6865218694  -4.0204778963  -0.1956590156
C   -1.4131507594  -2.9141882895  -0.5833714233
H   -2.5938275521   3.8128720867  -2.9731007677
H   -4.2917757238   4.3582256585  -3.1359205724
H   -2.7910971565   4.1105631376  -0.4809998242
H   -4.3942003475   4.8182815243  -0.7067032302
H   -2.9685564105   5.6413355022  -1.3659234477
H   -0.7509259220   0.6612720230  -1.2833233436
H   -4.8504774990   0.2803945706  -1.8294141595
H   -4.6692182645  -1.9686463788  -1.1501184426
H   -4.5266661858  -4.2276130127  -0.3924801089
H   -3.2237678894  -6.1996164669   0.2949202911
H   -0.7637303564  -6.0714466235   0.4268781964
H    0.3899285330  -3.9588530795  -0.1312527974
H   -0.9274863779  -1.9820349422  -0.8251585724
H    2.2116866252   4.1678375973   3.4744601830
C    1.9377546935   3.2776455454   2.9475052408
H    3.4534443512   1.7167582049   3.3497186708
H    0.2726690715   5.0026916536   1.2902620718
C    2.5525794881   2.0655927415   2.8898650470
H   -0.4059394882   4.7081863041   2.9041286617
C   -0.1403446668   4.2441920789   1.9555610622
N    0.8193054540   3.1983037322   2.1735326408
H    6.8970314448   1.2449317398  -0.3401314060
H    6.8569378704   2.9167176906  -2.1516992619
C    5.9580447323   1.4901649826  -0.8143789934
C    5.9364171537   2.4416551244  -1.8460314321
N    1.7991578381   1.2720953547   2.0745963686
H   -1.0293123824   3.8088748047   1.5019301257
C    0.7558228874   1.9815195093   1.6506774131
C    4.8050194925   0.8749898740  -0.4131033418
C    4.7564394032   2.7593882662  -2.4595679059
H    1.9267028292  -0.6739670227   3.8157890914
H    4.8267916642   0.1372294813   0.3754051902
H    4.7297725525   3.4887066731  -3.2567264200
C    2.0953693160  -0.0798593991   1.7562788904
C    2.1427587934  -1.0078371834   2.8130341340
C    3.5705961002   1.1798072638  -1.0277198352
C    3.5496439683   2.1423492037  -2.0711395235
H   -0.0496289376   1.6259883421   1.0333767364
C    2.3601056428   0.5617896470  -0.6309006458
C    2.3185400853   2.4497819348  -2.6888240749
C    2.3609189940  -0.4459798977   0.4564764091
C    2.4488876243  -2.3123422144   2.5580061836
H    2.3040632937   3.1795838356  -3.4852966379
H    2.4851049322  -3.0333999179   3.3598785478
C    1.1632281584   1.8397189816  -2.2969096712
C    1.1702238632   0.8859631467  -1.2588676972
C    2.6744796665  -1.8021308525   0.1778057929
C    2.7211649220  -2.7419278324   1.2415786171
O    0.0389886059   0.2722547337  -0.8453679928
H    0.2172577033   2.0746336506  -2.7594692867
C    2.9513993503  -2.2425297847  -1.1337076588
C    3.0490245419  -4.0836753996   0.9539562398
H    2.9089729066  -1.5277947729  -1.9413876491
H    3.0812743298  -4.7940997365   1.7669135609
C    3.2635121121  -3.5508666830  -1.3793507868
C    3.3155596410  -4.4793573748  -0.3275812686
H    3.4700288718  -3.8792062214  -2.3869754179
H    3.5631313940  -5.5086189344  -0.5406280099
H   -1.5999369399  -1.6899822545   2.4872205770
C   -3.8768586145  -1.1431960031   1.5356083017
C   -4.9205948975  -0.3947945985   0.9346347721
C   -3.0226126287   0.9073782033   0.9730076279
C   -1.4657964667  -0.6859469505   2.0863962080
C   -4.4122853855   0.8035164437   0.4572412760
N   -2.7352303990  -0.2889488227   1.5362685334
O   -2.2611008021   1.8687346343   0.9339701078
O   -3.8600328935  -2.2412829950   2.0859158407
H   -5.9174213646  -0.7695198957   0.7958418820
H   -1.1736010998  -0.0012846558   2.8848239355
H   -4.9917397034   1.6773003225   0.2105383818
H   -0.7082534521  -0.7054874483   1.3028470255
  85
G(CENSO)=       -2140.74433981  G(xTB)=        -135.55317998        !CONF24
O   -1.9844091095   1.9030329290  -1.7878212566
C   -3.1927240860   1.7185446450  -1.7232779316
O   -4.0843978601   2.6919179190  -1.9911658338
C   -3.5712106295   3.9740932959  -2.3690907180
C   -3.3729589320   4.0743816968  -3.8758565821
C   -3.8395447592   0.4881756009  -1.3323476366
N   -3.0637694671  -0.6093543016  -1.1962051257
C   -3.6257427098  -1.7472756085  -0.9578442505
C   -2.8468656875  -2.9253986179  -0.6560079825
C   -3.4889504537  -4.1293809333  -0.3628595224
C   -2.7553318254  -5.2529543833  -0.0340791898
C   -1.3718669340  -5.1932352358   0.0070257541
C   -0.7233770636  -4.0010325254  -0.2814643532
C   -1.4505365240  -2.8758438216  -0.6090980182
H   -4.3214279833   4.6890300756  -2.0244495953
H   -2.6252069787   4.1404637292  -1.8442057932
H   -3.0274154785   5.0721813657  -4.1293894903
H   -4.3100451921   3.8764764173  -4.3903830419
H   -2.6339985252   3.3469810045  -4.2040058910
H   -0.7617066033   0.7223265673  -1.1952934925
H   -4.8860358867   0.3922504591  -1.6446028324
H   -4.7115841894  -1.8833553318  -1.0544995171
H   -4.5691759420  -4.1714909694  -0.3829920215
H   -3.2654778598  -6.1772187529   0.1970421255
H   -0.8018176186  -6.0727494226   0.2679677449
H    0.3549130523  -3.9498142833  -0.2434494866
H   -0.9635073845  -1.9390953282  -0.8295697571
H    2.2696622935   4.0063638384   3.7073745768
C    1.9897190617   3.1430124125   3.1404051910
H    3.5065064404   1.5628955527   3.4536567173
H   -0.9916755027   3.7459989938   1.7517353657
C    2.6021278647   1.9343684852   3.0191306664
H    0.3102844816   4.9467448402   1.5809097516
C   -0.0964041423   4.1584445442   2.2149157497
N    0.8643279895   3.1025319991   2.3733782066
H    6.8911152206   1.2890345839  -0.2814716302
H    6.8301433190   3.0528913170  -2.0028892190
C    5.9473624592   1.5550034405  -0.7346271317
C    5.9138255669   2.5589889213  -1.7149419327
N    1.8402209422   1.1820398410   2.1733462107
H   -0.3493102416   4.5782319563   3.1872902942
C    0.7945317278   1.9124486084   1.7930899200
C    4.7998649898   0.9152301243  -0.3566387867
C    4.7277396967   2.9034151507  -2.3017028152
H    1.9936862042  -0.8468828488   3.8167298444
H    4.8307911250   0.1371063172   0.3917681880
H    4.6919538252   3.6730130404  -3.0596657130
C    2.1279443546  -0.1534423397   1.7859076314
C    2.1894085610  -1.1321772334   2.7949855228
C    3.5592513507   1.2470108703  -0.9442664144
C    3.5263521165   2.2623479187  -1.9360909019
H   -0.0184600679   1.5880220888   1.1684587556
C    2.3543317714   0.6043628531  -0.5703872467
C    2.2890167172   2.5969416459  -2.5265784708
C    2.3678980305  -0.4566842512   0.4650559430
C    2.4825328972  -2.4242284447   2.4705282509
H    2.2650938808   3.3676788751  -3.2832323395
H    2.5291097159  -3.1839746938   3.2352843993
C    1.1392122341   1.9627815799  -2.1574088607
C    1.1581223323   0.9557724255  -1.1710660585
C    2.6673163297  -1.7990927832   0.1143037559
C    2.7267772915  -2.7903311576   1.1296560141
O    0.0324617068   0.3171304180  -0.7807181192
H    0.1883591066   2.2190466162  -2.5978244693
C    2.9168109756  -2.1761171940  -1.2222106111
C    3.0384788881  -4.1185588631   0.7702734371
H    2.8654269418  -1.4219945866  -1.9927114427
H    3.0803693233  -4.8683287459   1.5466385426
C    3.2133309797  -3.4730229961  -1.5377699220
C    3.2772819476  -4.4525888856  -0.5340791708
H    3.3983753465  -3.7528723403  -2.5640356966
H    3.5119746912  -5.4719410351  -0.8022257844
H   -1.5618399276  -1.7947291202   2.4922503985
C   -3.8575170051  -1.1708981773   1.6343013535
C   -4.9027398403  -0.3831700016   1.0882976575
C   -2.9826163316   0.8858083354   1.1284434392
C   -1.4262007663  -0.7719623040   2.1426793172
C   -4.3863197226   0.8249146846   0.6453850605
N   -2.7024432466  -0.3351577599   1.6406046356
O   -2.2049524734   1.8342408328   1.1042101847
O   -3.8460690951  -2.2898642450   2.1410434736
H   -5.9086542949  -0.7366918371   0.9596533635
H   -1.1111587541  -0.1337879070   2.9705312513
H   -4.9558809222   1.7174792589   0.4474136217
H   -0.6847959166  -0.7553250473   1.3438553089
  85
G(CENSO)=       -2140.74406871  G(xTB)=        -135.55583038        !CONF12
O   -1.8359668295   2.4270435073  -0.7078904711
C   -3.0238962462   2.1826415443  -0.8851942356
O   -3.9497686832   3.1548976372  -0.9618347312
C   -3.5022588241   4.5033004776  -0.7815002619
C   -4.5606920411   5.4456429487  -1.3264064581
C   -3.6092564137   0.8698242224  -1.0180535089
N   -2.7742951824  -0.1877730572  -1.1296160656
C   -3.2927624301  -1.3530719762  -1.3448460762
C   -2.5066127530  -2.5644274873  -1.3340626389
C   -3.1190533424  -3.7903150718  -1.6004834798
C   -2.3907713161  -4.9631646618  -1.5580016075
C   -1.0406833435  -4.9335031786  -1.2479971470
C   -0.4220818279  -3.7216897873  -0.9781312905
C   -1.1456010366  -2.5481471278  -1.0187901548
H   -3.3410086283   4.6675855746   0.2900210658
H   -2.5470449447   4.6274356690  -1.3039517035
H   -4.2382225665   6.4723937286  -1.1821511553
H   -5.5016654799   5.2883953013  -0.8067041977
H   -4.7152319510   5.2633804147  -2.3865322105
H   -0.7490554458   0.9727993326  -0.5361509035
H   -4.5952835636   0.8460950564  -1.4955982365
H   -4.3448376883  -1.4587328961  -1.6422256412
H   -4.1756727514  -3.8153537631  -1.8296612235
H   -2.8799430699  -5.9054791100  -1.7599022166
H   -0.4754566975  -5.8531493973  -1.2091369662
H    0.6282560298  -3.6944466858  -0.7253426752
H   -0.6825519738  -1.6006178472  -0.7990021039
H    1.9571850272   4.7661749318   1.1491953246
C    1.7170224721   3.7531048232   1.3958420861
H    3.5010655515   2.4926321214   1.0400968526
H   -0.5450136985   4.7816801104   2.9873235253
C    2.4840684837   2.6308964869   1.3421651030
H   -1.5433693717   3.6269166893   2.0681298938
C   -0.6440534310   4.2404497699   2.0453905417
N    0.4854522470   3.3788426077   1.8424589504
H    6.8862949192   0.2622560246  -1.5007651602
H    6.5870535370   1.4249362874  -3.6549856364
C    5.8929444464   0.5434772325  -1.8183166939
C    5.7241352473   1.2088111909  -3.0426120373
N    1.7063410098   1.5951428524   1.7688854160
H   -0.7117683794   4.9527342027   1.2256077556
C    0.4998756586   2.0726741857   2.0638554296
C    4.8137297195   0.2531827639  -1.0308657483
C    4.4742039140   1.5850847645  -3.4492969562
H    1.7925246315   0.1100143159   3.9379092399
H    4.9509297171  -0.2576151653  -0.0894553515
H    4.3342699763   2.1069333537  -4.3852576593
C    2.0947110277   0.2305821124   1.8144569382
C    2.0930973746  -0.4299726534   3.0538416025
C    3.5068471826   0.6101283513  -1.4317308350
C    3.3403612036   1.3067380785  -2.6582779221
H   -0.3576339451   1.4993690087   2.3637484938
C    2.3692940992   0.3308015320  -0.6350959129
C    2.0452964978   1.7120837192  -3.0455748749
C    2.4629335386  -0.4025512259   0.6461580048
C    2.4832896909  -1.7361119457   3.1226277979
H    1.9225948306   2.2356052897  -3.9825530183
H    2.4969290154  -2.2549362791   4.0686258391
C    0.9638368320   1.4592710187  -2.2532954569
C    1.1152682896   0.7708466405  -1.0348850268
C    2.8373280024  -1.7718163404   0.7009251259
C    2.8629647594  -2.4355692101   1.9571380519
O    0.0623026436   0.5089959209  -0.2312186931
H   -0.0292874825   1.7780438758  -2.5337136435
C    3.1618243350  -2.5057692137  -0.4603590288
C    3.2539252318  -3.7903375471   2.0078588917
H    3.1084932190  -2.0157262636  -1.4201970289
H    3.2785416856  -4.2855341387   2.9674194675
C    3.5301422268  -3.8202053255  -0.3770030150
C    3.5867707660  -4.4667550340   0.8676302948
H    3.7729191977  -4.3714209490  -1.2733325169
H    3.8832003063  -5.5040286102   0.9142423990
H   -1.3750590159  -0.8081020704   3.2608140475
C   -3.7823143785  -1.6421417652   1.2701037846
C   -4.8470151316  -0.8178335439   0.8195926784
C   -3.1390192903   0.5372745003   1.5525207630
C   -1.5045290693  -1.2030169549   2.2512562262
C   -4.4469735115   0.5092959315   0.8512731628
N   -2.7558185997  -0.7529576939   1.6986807666
O   -2.5044151632   1.5093156556   1.9489624832
O   -3.6870364872  -2.8572922883   1.4157707169
H   -5.7777364401  -1.2007200759   0.4452832382
H   -0.6790033308  -0.8878743112   1.6126219542
H   -5.1026641618   1.3637548933   0.8437768310
H   -1.5483052754  -2.2908551639   2.2824620223
  85
G(CENSO)=       -2140.74368777  G(xTB)=        -135.55381182        !CONF21
O   -1.3142344558   2.1790409346  -0.4976406173
C   -2.4244920001   2.0701775354  -0.9878794554
O   -3.1603903725   3.1398931988  -1.3637038666
C   -2.5982164502   4.4410499584  -1.1697655963
C   -3.0943160605   5.3659655332  -2.2688556137
C   -3.1684437764   0.8502554501  -1.2283751954
N   -2.5561214726  -0.3579249724  -1.1877857076
C   -3.3020101172  -1.3793402330  -1.4990696335
C   -2.9071843796  -2.7644895447  -1.4000108540
C   -3.7661647351  -3.7339885258  -1.9277318396
C   -3.4678202472  -5.0774498027  -1.8285791317
C   -2.3053845530  -5.4841981127  -1.1934576547
C   -1.4476991836  -4.5348995183  -0.6609812968
C   -1.7407066021  -3.1892466484  -0.7595231435
H   -2.9155952090   4.8007195577  -0.1842318879
H   -1.5065433749   4.3506932420  -1.1843662615
H   -2.6926518154   6.3623400628  -2.1105379806
H   -4.1798513014   5.4105018290  -2.2550660465
H   -2.7739060981   5.0006875209  -3.2410737471
H   -0.9164721537  -0.3379733460  -0.5434032231
H   -4.0271027094   0.9816119286  -1.8951611329
H   -4.2561286631  -1.2078198400  -2.0112409140
H   -4.6809643730  -3.4197933608  -2.4120511014
H   -4.1477424930  -5.8105264902  -2.2385299840
H   -2.0754003866  -6.5358826693  -1.1055926755
H   -0.5486881035  -4.8497608913  -0.1520648408
H   -1.0749627405  -2.4592263604  -0.3312640496
H    1.9795218961   4.7991498852   2.4807862267
C    1.7781433178   3.7629386914   2.3048185768
H    3.6778886113   2.6328212521   2.4119304104
H   -0.8262607364   4.5319490039   3.0433332091
C    2.6188650216   2.6956373791   2.2733966538
H   -1.5154643223   3.4423210763   1.8189496163
C   -0.6726497611   4.0865190080   2.0603422907
N    0.5221160955   3.2925318959   2.0656702553
H    6.4736527696   1.7958076204  -1.3377610725
H    5.8181091843   2.7414179856  -3.5185435828
C    5.4506693723   1.7000979996  -1.6710875834
C    5.0788035704   2.2384644829  -2.9127261452
N    1.8570312732   1.5945644949   2.0097635292
H   -0.5901963131   4.8774834692   1.3163713528
C    0.5902476262   1.9816731800   1.8845454713
C    4.5306066179   1.0584105935  -0.8896978150
C    3.7886470930   2.1212740634  -3.3507795890
H    2.5569652256   0.2202835796   4.1074486924
H    4.8213722382   0.6390855097   0.0622960390
H    3.4929215504   2.5295034933  -4.3069914029
C    2.3815221514   0.2719004065   1.9655925792
C    2.7411939458  -0.3194234953   3.1914756697
C    3.1899048706   0.9226553281  -1.3124559867
C    2.8155171005   1.4653805134  -2.5695301804
H   -0.2515226669   1.3532554359   1.6623319281
C    2.2139333630   0.2736656601  -0.5193060465
C    1.4816896151   1.3132030421  -3.0044735437
C    2.5915454308  -0.3622801163   0.7650372492
C    3.3121947428  -1.5581611045   3.2073811205
H    1.2028662431   1.6990473573  -3.9748504963
H    3.5896926782  -2.0219881296   4.1414273196
C    0.5550940401   0.6870763932  -2.2243970862
C    0.9033297765   0.1811752161  -0.9553328297
C    3.1921710413  -1.6509304960   0.7674095643
C    3.5572628306  -2.2505905156   2.0019296857
O   -0.0025114247  -0.4176753034  -0.1581928248
H   -0.4647148678   0.5621563296  -2.5582749094
C    3.4514952608  -2.3498182957  -0.4305040447
C    4.1675116625  -3.5224839905   1.9914431224
H    3.1690076108  -1.8962678254  -1.3683440132
H    4.4411764990  -3.9730600833   2.9342250043
C    4.0492139880  -3.5795116042  -0.4067980865
C    4.4105076963  -4.1720202281   0.8132668327
H    4.2438220021  -4.1045438315  -1.3300961844
H    4.8802777588  -5.1443523583   0.8124941584
H   -2.2353991313  -2.3105253957   2.5964724584
C   -4.1023356024  -1.5045967783   1.0568587613
C   -4.9439512232  -0.5968513914   0.3547307505
C   -3.2651764768   0.6029197448   1.3722356820
C   -2.0112357609  -1.2559787409   2.4424876843
C   -4.4085586627   0.6820665192   0.4327960637
N   -3.0679888906  -0.7162596583   1.6250165180
O   -2.5975818027   1.5133052996   1.8477340959
O   -4.1912858891  -2.7091112440   1.2686943054
H   -5.8438353671  -0.8907885246  -0.1510610233
H   -1.9795628220  -0.7324292370   3.3990467667
H   -4.9470395691   1.6004602562   0.2713236430
H   -1.0521740985  -1.1535258667   1.9321568875
  85
G(CENSO)=       -2140.74306680  G(xTB)=        -135.55517556        !CONF14
O   -1.9110629787   2.4117003898  -0.7233195454
C   -3.0970321110   2.1530243440  -0.8873297194
O   -4.0415991241   3.1108585431  -0.9543695392
C   -3.6180007683   4.4701354384  -0.8075120845
C   -3.1990219237   5.0784790924  -2.1394355973
C   -3.6683811033   0.8317637221  -0.9968466574
N   -2.8226679388  -0.2177403932  -1.1022737344
C   -3.3284539141  -1.3914307718  -1.2998551498
C   -2.5268110688  -2.5923127381  -1.2782150833
C   -3.1277535838  -3.8304023307  -1.5122234779
C   -2.3845180254  -4.9933094534  -1.4572425537
C   -1.0307944799  -4.9410699992  -1.1669366955
C   -0.4234623833  -3.7167885913  -0.9293310205
C   -1.1617107516  -2.5529542264  -0.9827556367
H   -4.4860341543   4.9889432054  -0.3954161071
H   -2.7893997181   4.4982135167  -0.0935979555
H   -2.3285721642   4.5570240769  -2.5302301960
H   -2.9529254179   6.1265052721  -1.9968399862
H   -4.0096675437   4.9958749146  -2.8592054984
H   -0.7887067827   1.0006495289  -0.5176281856
H   -4.6585405980   0.7905043640  -1.4648562016
H   -4.3818425077  -1.5140912638  -1.5860748483
H   -4.1871113930  -3.8725114776  -1.7255741797
H   -2.8647778745  -5.9452148359  -1.6338941728
H   -0.4537145468  -5.8528468357  -1.1186551870
H    0.6298838498  -3.6725577161  -0.6922383581
H   -0.7074557358  -1.5953615756  -0.7886710197
H    1.9371831547   4.7646920654   1.3216741352
C    1.6935311159   3.7437000576   1.5292635795
H    3.4708623972   2.4913705868   1.1163628917
H   -1.5702100215   3.6158900682   2.1668751402
C    2.4556929606   2.6213868801   1.4280672032
H   -0.6963651024   4.9979433450   1.4594043291
C   -0.6615947703   4.2148372724   2.2140407555
N    0.4623613157   3.3569901259   1.9661601935
H    6.8520712768   0.3714670648  -1.5004551460
H    6.5433168235   1.5938395498  -3.6200395060
C    5.8567014023   0.6559409795  -1.8086788766
C    5.6824771094   1.3553031645  -3.0130727607
N    1.6755836745   1.5726942316   1.8171278742
H   -0.5800265065   4.6720676196   3.2012352261
C    0.4724855127   2.0426842922   2.1360598626
C    4.7801828911   0.3367142990  -1.0287381347
C    4.4298250624   1.7356800125  -3.4074033537
H    1.7589933716   0.0155001092   3.9345201758
H    4.9216552047  -0.2003596458  -0.1026917564
H    4.2856475436   2.2833712967  -4.3278253314
C    2.0637938747   0.2073580208   1.8165071583
C    2.0629685888  -0.4937207710   3.0335267782
C    3.4706543290   0.6969468386  -1.4178973505
C    3.2986606531   1.4277007185  -2.6235990141
H   -0.3865187919   1.4611338499   2.4147250914
C    2.3357679601   0.3869744613  -0.6287299570
C    2.0005071324   1.8350752144  -2.9982445142
C    2.4350063129  -0.3858616070   0.6285064590
C    2.4585678333  -1.7997206379   3.0599441617
H    1.8734068770   2.3844051599  -3.9197222907
H    2.4725467591  -2.3494064606   3.9883330141
C    0.9217736576   1.5520130317  -2.2126522396
C    1.0783721994   0.8303259849  -1.0142142556
C    2.8174887102  -1.7539955578   0.6391272086
C    2.8450613026  -2.4582476143   1.8730460915
O    0.0272148315   0.5410204066  -0.2176611081
H   -0.0740126347   1.8711736848  -2.4825549467
C    3.1501013280  -2.4472991587  -0.5446605477
C    3.2460478974  -3.8110028366   1.8805781635
H    3.0947679868  -1.9270383901  -1.4882884742
H    3.2716934263  -4.3371560821   2.8234844218
C    3.5292939271  -3.7606503355  -0.5031587196
C    3.5880419527  -4.4469465956   0.7199246544
H    3.7788342971  -4.2803060904  -1.4162944144
H    3.8928133056  -5.4827708420   0.7335649983
H   -1.3906299820  -0.8245792656   3.2781022639
C   -3.8142489703  -1.6593669479   1.3150808061
C   -4.8839624719  -0.8389751251   0.8702648799
C   -3.1676045288   0.5226016631   1.5714811629
C   -1.5256305963  -1.2125010947   2.2664390123
C   -4.4836958891   0.4883889623   0.8854638012
N   -2.7837133628  -0.7663319933   1.7264867746
O   -2.5276237875   1.4978991143   1.9507988046
O   -3.7166946630  -2.8734365588   1.4694229170
H   -5.8178899026  -1.2250185822   0.5072132959
H   -0.7073105895  -0.8884759434   1.6230631324
H   -5.1392662381   1.3430148953   0.8773514677
H   -1.5629644707  -2.3007771893   2.2906554272
  85
G(CENSO)=       -2140.74297001  G(xTB)=        -135.55565473        !CONF11
O   -1.8524191165   2.4110854338  -0.8306839185
C   -3.0321622520   2.1563427052  -1.0404912475
O   -3.9681905705   3.1135338038  -1.1859104224
C   -3.5911165240   4.4733061767  -0.9422033474
C   -4.1509967088   4.9430080713   0.3936185961
C   -3.6046871110   0.8359266047  -1.1488252922
N   -2.7634726257  -0.2210383953  -1.2031259165
C   -3.2742508639  -1.3953296895  -1.3855050581
C   -2.4869597759  -2.6035706279  -1.3116016772
C   -3.0938639964  -3.8399823121  -1.5394461911
C   -2.3662282645  -5.0093513478  -1.4356279675
C   -1.0222612365  -4.9654859747  -1.1017700831
C   -0.4092337981  -3.7430016582  -0.8700285324
C   -1.1320139127  -2.5727297212  -0.9721329283
H   -2.4986799230   4.5365814535  -0.9574759307
H   -4.0078870666   5.0535004608  -1.7698323593
H   -3.8225795364   5.9584667068   0.5925328034
H   -3.8053336349   4.2859549069   1.1883111401
H   -5.2374074591   4.9167964659   0.3720971663
H   -0.7531194738   0.9730466406  -0.6117258994
H   -4.5798517480   0.7900314699  -1.6467293054
H   -4.3197334406  -1.5149873262  -1.7005205939
H   -4.1459983313  -3.8753916983  -1.7871895179
H   -2.8511809240  -5.9596184307  -1.6083018629
H   -0.4575201532  -5.8821351409  -1.0150918264
H    0.6362591425  -3.7047772663  -0.5995219612
H   -0.6731511504  -1.6164058495  -0.7833660491
H    1.9837603361   4.7910776603   1.0892234103
C    1.7282618693   3.7813944995   1.3344199675
H    3.5081882551   2.5026977806   1.0262688887
H   -0.5738608806   4.8206696806   2.8777361920
C    2.4857853777   2.6518521492   1.3038667349
H   -1.5484940291   3.6856949217   1.9119640361
C   -0.6439623610   4.2910121765   1.9268026252
N    0.4831933495   3.4203549917   1.7532130348
H    6.8945541468   0.2699374544  -1.4862333685
H    6.6169350827   1.4169945800  -3.6516760940
C    5.9043322331   0.5479591034  -1.8161424117
C    5.7478120845   1.2043387234  -3.0469053577
N    1.6886700578   1.6251837266   1.7165744773
H   -0.6783382113   5.0140795580   1.1147949125
C    0.4800360831   2.1150283692   1.9805840982
C    4.8171601684   0.2622228963  -1.0380460599
C    4.5018788273   1.5762790714  -3.4695121112
H    1.7368539822   0.1536432789   3.8979020161
H    4.9448851886  -0.2419046859  -0.0917021251
H    4.3712703912   2.0912179027  -4.4106380730
C    2.0675924707   0.2583894010   1.7776981551
C    2.0481981848  -0.3929880175   3.0216966855
C    3.5142331652   0.6149221600  -1.4552445082
C    3.3600120195   1.3023915795  -2.6885374221
H   -0.3891469962   1.5513944274   2.2642823466
C    2.3686626490   0.3400618526  -0.6687551285
C    2.0687186059   1.7035828032  -3.0923273712
C    2.4486623324  -0.3840384600   0.6187095100
C    2.4351575506  -1.6992912039   3.1048005956
H    1.9552825531   2.2205410477  -4.0341074832
H    2.4347992501  -2.2115774061   4.0544444880
C    0.9791219300   1.4553695701  -2.3097438683
C    1.1183146860   0.7756228179  -1.0849727259
C    2.8223194949  -1.7527335759   0.6883636403
C    2.8310778316  -2.4070716302   1.9497844254
O    0.0573987547   0.5193928069  -0.2900009959
H   -0.0109627509   1.7721991938  -2.6030337997
C    3.1640084820  -2.4947316750  -0.4628432330
C    3.2228861610  -3.7609507705   2.0159401485
H    3.1231000241  -2.0120175561  -1.4269452851
H    3.2343466239  -4.2491804902   2.9793080204
C    3.5335181913  -3.8078034274  -0.3645342135
C    3.5734593287  -4.4450047991   0.8856035284
H    3.7897538482  -4.3652350727  -1.2532078581
H    3.8708505144  -5.4814128686   0.9440735234
H   -1.6069109755  -2.1897479708   2.3178983311
C   -3.8159951546  -1.5865573640   1.2289361300
C   -4.8737576290  -0.7836198668   0.7270448856
C   -3.1848752606   0.6043270798   1.4433540294
C   -1.5594249352  -1.1046027360   2.2366937167
C   -4.4779479517   0.5450974010   0.7164370306
N   -2.8005201027  -0.6783474945   1.6438049664
O   -2.5623284450   1.5926604339   1.8182146836
O   -3.7201910535  -2.7950361584   1.4224692628
H   -5.7953952226  -1.1835073626   0.3480403098
H   -1.4453965120  -0.6633212457   3.2287274647
H   -5.1362043323   1.3958659544   0.6620461601
H   -0.7227925221  -0.8226255888   1.5968343813
  85
G(CENSO)=       -2140.74260335  G(xTB)=        -135.55262737        !CONF52
O   -1.7631686071   1.1971105958  -2.2318190844
C   -2.9761397807   1.3117122534  -2.1143073750
O   -3.6137698063   2.4401062455  -2.4779455500
C   -2.7926852001   3.5056090381  -2.9694686743
C   -3.6747881765   4.7084929701  -3.2479881855
C   -3.8832961535   0.3261812625  -1.5748308021
N   -3.4038167126  -0.9151115125  -1.3481027249
C   -4.2299552961  -1.8306742601  -0.9608990378
C   -3.7804298786  -3.1485024154  -0.5773232479
C   -4.7047004813  -4.1099547207  -0.1663762918
C   -4.2838491145  -5.3667660612   0.2228114504
C   -2.9355880912  -5.6849448735   0.2055541611
C   -2.0078028905  -4.7358138169  -0.1984266012
C   -2.4223451699  -3.4772296121  -0.5821280240
H   -2.0298807196   3.7303297510  -2.2152771105
H   -2.2857547458   3.1642815087  -3.8803446913
H   -3.0645497067   5.5215553101  -3.6294222512
H   -4.1701506723   5.0272501946  -2.3352594218
H   -4.4320319187   4.4515192804  -3.9835871589
H   -0.4164101039   0.3087671842  -1.4121382854
H   -4.9356073298   0.4680715074  -1.8498265450
H   -5.3170708307  -1.6790468748  -1.0125397501
H   -5.7560072830  -3.8577833511  -0.1457397137
H   -5.0096741643  -6.0998414128   0.5446460533
H   -2.6083656565  -6.6680138357   0.5112713857
H   -0.9560051972  -4.9813288729  -0.2080613598
H   -1.7165797480  -2.7220516506  -0.8915258398
H    1.9857260602   3.9604371463   3.8821598557
C    1.8334794627   3.0942303768   3.2725156773
H    3.4234971059   1.6223911662   3.7175381000
H   -0.9835138748   3.5446694150   1.5215459315
C    2.5438879193   1.9369753532   3.1959832636
H    0.2276191808   4.8441342327   1.6282096333
C   -0.2054291690   3.9860865720   2.1427485957
N    0.8032777781   2.9931581136   2.3865037101
H    6.8953096377   2.1393783149   0.2689522968
H    6.6894940175   3.9240526816  -1.4195246300
C    5.9663624011   2.2546392040  -0.2699414291
C    5.8506772009   3.2701842397  -1.2318758129
N    1.9353759670   1.1539956374   2.2583393117
H   -0.6371397151   4.3172198852   3.0863416594
C    0.8844715721   1.8162379411   1.7800174626
C    4.9176289073   1.4146730440  -0.0177230988
C    4.6838632982   3.4235814528  -1.9281160121
H    2.2586131106  -0.8818414724   3.8739205342
H    5.0141379302   0.6276618711   0.7156236324
H    4.5863121734   4.1990911545  -2.6744583753
C    2.3811913912  -0.1326199701   1.8618978154
C    2.5256693371  -1.1180193802   2.8556999343
C    3.6981515588   1.5486572442  -0.7174863089
C    3.5836905342   2.5736164258  -1.6931788035
H    0.1672036507   1.4528615246   1.0658159001
C    2.5932531860   0.6977191842  -0.4716402161
C    2.3693866505   2.7077023923  -2.3995547694
C    2.6995506584  -0.3769463505   0.5449108047
C    2.9871797932  -2.3572382893   2.5202264627
H    2.2841851327   3.4838506221  -3.1461405832
H    3.0992556251  -3.1219719681   3.2732508249
C    1.3172173690   1.8758147903  -2.1522038371
C    1.4153779576   0.8594345743  -1.1802632112
C    3.1796768044  -1.6626902269   0.1838374374
C    3.3255842841  -2.6608246091   1.1839594444
O    0.3776148043   0.0367080300  -0.9059496288
H    0.3823744789   1.9759294579  -2.6818342824
C    3.5318769363  -1.9742712599  -1.1464562592
C    3.8155851740  -3.9312425407   0.8152772627
H    3.4206398199  -1.2138033413  -1.9044173901
H    3.9226741261  -4.6867656020   1.5797714909
C    4.0017821021  -3.2164574829  -1.4711720307
C    4.1453043612  -4.2036145785  -0.4833235559
H    4.2657755454  -3.4463149466  -2.4926733871
H    4.5181150121  -5.1789674662  -0.7586812880
H   -0.7158853620  -0.9083528202   0.9996939167
C   -3.9503698751  -0.9735515332   1.5484129382
C   -4.9068592159  -0.0872550621   0.9860478645
C   -2.8216337370   0.8527465338   0.7525071843
C   -1.4456883722  -0.9319510065   1.8089000234
C   -4.2485960416   0.9665212038   0.3701466912
N   -2.6844206824  -0.3464144466   1.3659747316
O   -1.9192890713   1.6693312255   0.5908490512
O   -4.0660205289  -2.0191350772   2.1813213563
H   -5.9636433238  -0.2764823138   0.9821614278
H   -1.6649652024  -1.9627809087   2.0835348408
H   -4.6880068601   1.9112948035   0.0980158659
H   -1.0609872766  -0.3965769197   2.6804441164
