85
Energy = 0.00 kcal/mol
O    -1.625743 2.464025 -0.821893
C    -2.805986 2.178441 -0.906450
O    -3.783978 3.087086 -0.730868
C    -3.398144 4.376987 -0.267848
C    -4.640357 5.233426 -0.185286
C    -3.381681 0.856816 -1.117576
N    -2.574635 -0.212344 -1.338706
C    -3.171915 -1.348855 -1.574898
C    -2.513629 -2.656039 -1.621306
C    -3.199733 -3.724739 -2.221646
C    -2.639135 -4.998337 -2.273184
C    -1.383483 -5.231282 -1.709448
C    -0.702561 -4.181529 -1.089042
C    -1.258762 -2.906088 -1.038822
H    -2.920457 4.259321 0.717226
H    -2.657087 4.806695 -0.959455
H    -5.108632 5.329075 -1.174461
H    -4.380514 6.236978 0.177044
H    -5.369553 4.790216 0.506420
H    -1.089175 -0.012095 -0.786220
H    -4.402433 0.851049 -1.514537
H    -4.229186 -1.339277 -1.875020
H    -4.185441 -3.545830 -2.658055
H    -3.184741 -5.813311 -2.752094
H    -0.942250 -6.228923 -1.743795
H    0.270146 -4.357078 -0.625994
H    -0.728422 -2.102378 -0.526644
H    2.517657 5.039520 2.030341
C    2.168571 4.019339 1.904321
H    3.710166 2.596044 2.669538
H    -0.533450 5.168764 1.680643
C    2.749514 2.830485 2.220865
H    -0.714774 4.180572 0.183189
C    -0.010033 4.708799 0.833750
N    0.951756 3.728727 1.325969
H    6.650729 0.953606 -1.265307
H    6.263877 1.870718 -3.557761
C    5.632820 1.032106 -1.651139
C    5.415031 1.551603 -2.951499
N    1.868087 1.842016 1.828573
H    0.529079 5.475617 0.266962
C    0.783039 2.409826 1.288152
C    4.574343 0.625209 -0.871723
C    4.133959 1.648978 -3.443359
H    2.102885 0.512192 4.093386
H    4.751943 0.224719 0.128838
H    3.952231 2.046001 -4.444741
C    2.125397 0.433646 1.924924
C    2.234649 -0.128386 3.220472
C    3.237452 0.716636 -1.354066
C    3.019729 1.235291 -2.665647
H    -0.102815 1.886051 0.909302
C    2.116001 0.302011 -0.578554
C    1.686236 1.320465 -3.160472
C    2.271256 -0.307923 0.771211
C    2.484168 -1.469061 3.352320
H    1.524916 1.718057 -4.164944
H    2.563430 -1.920465 4.342672
C    0.618256 0.922538 -2.401326
C    0.829199 0.401922 -1.090118
C    2.526139 -1.711988 0.903853
C    2.634073 -2.292715 2.202169
O    -0.177288 0.015453 -0.314039
H    -0.406072 1.001437 -2.767070
C    2.678687 -2.548332 -0.237348
C    2.888930 -3.686787 2.319577
H    2.587708 -2.107852 -1.231295
H    2.965195 -4.122950 3.317469
C    2.934563 -3.891247 -0.091000
C    3.038653 -4.468395 1.199564
H    3.051004 -4.520711 -0.974671
H    3.236805 -5.536458 1.299835
H    -1.198890 -2.257743 2.612446
C    -3.358386 -1.754347 1.329734
C    -4.458623 -0.978684 0.792695
C    -2.787711 0.467135 1.519910
C    -1.140127 -1.183441 2.398901
C    -4.117006 0.367676 0.826343
N    -2.347007 -0.819356 1.696712
O    -2.186277 1.472593 1.862107
O    -3.230034 -2.950491 1.513794
H    -5.400802 -1.430413 0.494299
H    -1.063025 -0.620865 3.341244
H    -4.793840 1.221331 0.849289
H    -0.253501 -0.978480 1.783730
