85
Energy = 0.00 kcal/mol
O    0.494532 2.588374 0.824339
C    1.014853 2.839583 -0.242586
O    1.224536 4.101834 -0.662603
C    0.911705 5.147063 0.259001
C    2.047796 5.352258 1.241756
C    1.551345 1.873867 -1.195166
N    1.262119 0.552818 -1.037966
C    1.684647 -0.226074 -1.994923
C    1.635620 -1.688583 -1.954398
C    1.624309 -2.401694 -0.747045
C    1.507324 -3.789319 -0.746295
C    1.437070 -4.490744 -1.951241
C    1.504641 -3.794691 -3.161376
C    1.609477 -2.406559 -3.160516
H    0.742851 6.037954 -0.359234
H    -0.021532 4.894721 0.780971
H    1.783678 6.132097 1.970045
H    2.959832 5.664368 0.712892
H    2.258443 4.410796 1.766640
H    0.606710 0.070311 0.433032
H    1.698285 2.265255 -2.208582
H    1.962311 0.216597 -2.962649
H    1.719450 -1.852425 0.188981
H    1.480523 -4.327374 0.203314
H    1.345654 -5.578277 -1.948800
H    1.470177 -4.337519 -4.107799
H    1.646375 -1.860070 -4.106252
H    -3.643822 0.100243 4.524648
C    -3.088306 0.476773 3.671438
H    -4.248691 0.117310 1.798222
H    -0.974648 0.281858 5.537771
C    -3.387410 0.490237 2.344873
H    -1.717225 1.905093 5.729079
C    -1.133501 1.257657 5.065161
N    -1.849424 1.073344 3.808521
H    -5.588933 -3.158451 -1.252712
H    -5.243304 -5.211282 0.133387
C    -4.709374 -3.236963 -0.611471
C    -4.517085 -4.398384 0.175291
N    -2.326121 1.100068 1.702650
H    -0.167151 1.724341 4.850024
C    -1.405701 1.437342 2.610194
C    -3.798222 -2.205839 -0.576251
C    -3.416871 -4.490062 0.995085
H    -2.538213 3.340139 0.280443
H    -3.960879 -1.318211 -1.189595
H    -3.259337 -5.374392 1.616687
C    -2.170665 1.204071 0.274920
C    -2.323256 2.468778 -0.338630
C    -2.639063 -2.279090 0.248959
C    -2.463305 -3.439741 1.058663
H    -0.444563 1.889148 2.363015
C    -1.676982 -1.220074 0.312960
C    -1.344599 -3.505185 1.936931
C    -1.885842 0.053501 -0.431448
C    -2.181708 2.571506 -1.697144
H    -1.215365 -4.392563 2.560364
H    -2.282807 3.539584 -2.190881
C    -0.444260 -2.478519 1.998797
C    -0.592491 -1.322669 1.177340
C    -1.768245 0.148128 -1.855930
C    -1.908983 1.418858 -2.487005
O    0.332724 -0.365156 1.316250
H    0.423533 -2.517691 2.659560
C    -1.480772 -0.989389 -2.657685
C    -1.763912 1.511382 -3.898025
H    -1.335805 -1.956970 -2.173736
H    -1.868627 2.489289 -4.372263
C    -1.356212 -0.870209 -4.021393
C    -1.497350 0.391787 -4.649509
H    -1.128366 -1.751946 -4.622415
H    -1.388805 0.472490 -5.732151
H    4.293471 -0.228572 2.684242
C    4.196663 -0.354744 -0.545842
C    4.140264 0.754315 -1.472220
C    3.492004 1.492336 0.635861
C    3.629243 -0.637113 1.908160
C    3.612759 1.867117 -0.812627
N    3.710564 0.137712 0.697284
O    3.247930 2.203179 1.591973
O    4.589145 -1.502916 -0.676729
H    4.515361 0.686898 -2.489684
H    3.940204 -1.659954 1.661419
H    3.771395 2.913582 -1.075079
H    2.595111 -0.641680 2.282144
