  85
G(CENSO)=       -2140.74406871  G(xTB)=        -135.55583038        !CONF12
O   -1.8359668295   2.4270435073  -0.7078904711
C   -3.0238962462   2.1826415443  -0.8851942356
O   -3.9497686832   3.1548976372  -0.9618347312
C   -3.5022588241   4.5033004776  -0.7815002619
C   -4.5606920411   5.4456429487  -1.3264064581
C   -3.6092564137   0.8698242224  -1.0180535089
N   -2.7742951824  -0.1877730572  -1.1296160656
C   -3.2927624301  -1.3530719762  -1.3448460762
C   -2.5066127530  -2.5644274873  -1.3340626389
C   -3.1190533424  -3.7903150718  -1.6004834798
C   -2.3907713161  -4.9631646618  -1.5580016075
C   -1.0406833435  -4.9335031786  -1.2479971470
C   -0.4220818279  -3.7216897873  -0.9781312905
C   -1.1456010366  -2.5481471278  -1.0187901548
H   -3.3410086283   4.6675855746   0.2900210658
H   -2.5470449447   4.6274356690  -1.3039517035
H   -4.2382225665   6.4723937286  -1.1821511553
H   -5.5016654799   5.2883953013  -0.8067041977
H   -4.7152319510   5.2633804147  -2.3865322105
H   -0.7490554458   0.9727993326  -0.5361509035
H   -4.5952835636   0.8460950564  -1.4955982365
H   -4.3448376883  -1.4587328961  -1.6422256412
H   -4.1756727514  -3.8153537631  -1.8296612235
H   -2.8799430699  -5.9054791100  -1.7599022166
H   -0.4754566975  -5.8531493973  -1.2091369662
H    0.6282560298  -3.6944466858  -0.7253426752
H   -0.6825519738  -1.6006178472  -0.7990021039
H    1.9571850272   4.7661749318   1.1491953246
C    1.7170224721   3.7531048232   1.3958420861
H    3.5010655515   2.4926321214   1.0400968526
H   -0.5450136985   4.7816801104   2.9873235253
C    2.4840684837   2.6308964869   1.3421651030
H   -1.5433693717   3.6269166893   2.0681298938
C   -0.6440534310   4.2404497699   2.0453905417
N    0.4854522470   3.3788426077   1.8424589504
H    6.8862949192   0.2622560246  -1.5007651602
H    6.5870535370   1.4249362874  -3.6549856364
C    5.8929444464   0.5434772325  -1.8183166939
C    5.7241352473   1.2088111909  -3.0426120373
N    1.7063410098   1.5951428524   1.7688854160
H   -0.7117683794   4.9527342027   1.2256077556
C    0.4998756586   2.0726741857   2.0638554296
C    4.8137297195   0.2531827639  -1.0308657483
C    4.4742039140   1.5850847645  -3.4492969562
H    1.7925246315   0.1100143159   3.9379092399
H    4.9509297171  -0.2576151653  -0.0894553515
H    4.3342699763   2.1069333537  -4.3852576593
C    2.0947110277   0.2305821124   1.8144569382
C    2.0930973746  -0.4299726534   3.0538416025
C    3.5068471826   0.6101283513  -1.4317308350
C    3.3403612036   1.3067380785  -2.6582779221
H   -0.3576339451   1.4993690087   2.3637484938
C    2.3692940992   0.3308015320  -0.6350959129
C    2.0452964978   1.7120837192  -3.0455748749
C    2.4629335386  -0.4025512259   0.6461580048
C    2.4832896909  -1.7361119457   3.1226277979
H    1.9225948306   2.2356052897  -3.9825530183
H    2.4969290154  -2.2549362791   4.0686258391
C    0.9638368320   1.4592710187  -2.2532954569
C    1.1152682896   0.7708466405  -1.0348850268
C    2.8373280024  -1.7718163404   0.7009251259
C    2.8629647594  -2.4355692101   1.9571380519
O    0.0623026436   0.5089959209  -0.2312186931
H   -0.0292874825   1.7780438758  -2.5337136435
C    3.1618243350  -2.5057692137  -0.4603590288
C    3.2539252318  -3.7903375471   2.0078588917
H    3.1084932190  -2.0157262636  -1.4201970289
H    3.2785416856  -4.2855341387   2.9674194675
C    3.5301422268  -3.8202053255  -0.3770030150
C    3.5867707660  -4.4667550340   0.8676302948
H    3.7729191977  -4.3714209490  -1.2733325169
H    3.8832003063  -5.5040286102   0.9142423990
H   -1.3750590159  -0.8081020704   3.2608140475
C   -3.7823143785  -1.6421417652   1.2701037846
C   -4.8470151316  -0.8178335439   0.8195926784
C   -3.1390192903   0.5372745003   1.5525207630
C   -1.5045290693  -1.2030169549   2.2512562262
C   -4.4469735115   0.5092959315   0.8512731628
N   -2.7558185997  -0.7529576939   1.6986807666
O   -2.5044151632   1.5093156556   1.9489624832
O   -3.6870364872  -2.8572922883   1.4157707169
H   -5.7777364401  -1.2007200759   0.4452832382
H   -0.6790033308  -0.8878743112   1.6126219542
H   -5.1026641618   1.3637548933   0.8437768310
H   -1.5483052754  -2.2908551639   2.2824620223
