  85
G(CENSO)=       -2140.74368777  G(xTB)=        -135.55381182        !CONF21
O   -1.3142344558   2.1790409346  -0.4976406173
C   -2.4244920001   2.0701775354  -0.9878794554
O   -3.1603903725   3.1398931988  -1.3637038666
C   -2.5982164502   4.4410499584  -1.1697655963
C   -3.0943160605   5.3659655332  -2.2688556137
C   -3.1684437764   0.8502554501  -1.2283751954
N   -2.5561214726  -0.3579249724  -1.1877857076
C   -3.3020101172  -1.3793402330  -1.4990696335
C   -2.9071843796  -2.7644895447  -1.4000108540
C   -3.7661647351  -3.7339885258  -1.9277318396
C   -3.4678202472  -5.0774498027  -1.8285791317
C   -2.3053845530  -5.4841981127  -1.1934576547
C   -1.4476991836  -4.5348995183  -0.6609812968
C   -1.7407066021  -3.1892466484  -0.7595231435
H   -2.9155952090   4.8007195577  -0.1842318879
H   -1.5065433749   4.3506932420  -1.1843662615
H   -2.6926518154   6.3623400628  -2.1105379806
H   -4.1798513014   5.4105018290  -2.2550660465
H   -2.7739060981   5.0006875209  -3.2410737471
H   -0.9164721537  -0.3379733460  -0.5434032231
H   -4.0271027094   0.9816119286  -1.8951611329
H   -4.2561286631  -1.2078198400  -2.0112409140
H   -4.6809643730  -3.4197933608  -2.4120511014
H   -4.1477424930  -5.8105264902  -2.2385299840
H   -2.0754003866  -6.5358826693  -1.1055926755
H   -0.5486881035  -4.8497608913  -0.1520648408
H   -1.0749627405  -2.4592263604  -0.3312640496
H    1.9795218961   4.7991498852   2.4807862267
C    1.7781433178   3.7629386914   2.3048185768
H    3.6778886113   2.6328212521   2.4119304104
H   -0.8262607364   4.5319490039   3.0433332091
C    2.6188650216   2.6956373791   2.2733966538
H   -1.5154643223   3.4423210763   1.8189496163
C   -0.6726497611   4.0865190080   2.0603422907
N    0.5221160955   3.2925318959   2.0656702553
H    6.4736527696   1.7958076204  -1.3377610725
H    5.8181091843   2.7414179856  -3.5185435828
C    5.4506693723   1.7000979996  -1.6710875834
C    5.0788035704   2.2384644829  -2.9127261452
N    1.8570312732   1.5945644949   2.0097635292
H   -0.5901963131   4.8774834692   1.3163713528
C    0.5902476262   1.9816731800   1.8845454713
C    4.5306066179   1.0584105935  -0.8896978150
C    3.7886470930   2.1212740634  -3.3507795890
H    2.5569652256   0.2202835796   4.1074486924
H    4.8213722382   0.6390855097   0.0622960390
H    3.4929215504   2.5295034933  -4.3069914029
C    2.3815221514   0.2719004065   1.9655925792
C    2.7411939458  -0.3194234953   3.1914756697
C    3.1899048706   0.9226553281  -1.3124559867
C    2.8155171005   1.4653805134  -2.5695301804
H   -0.2515226669   1.3532554359   1.6623319281
C    2.2139333630   0.2736656601  -0.5193060465
C    1.4816896151   1.3132030421  -3.0044735437
C    2.5915454308  -0.3622801163   0.7650372492
C    3.3121947428  -1.5581611045   3.2073811205
H    1.2028662431   1.6990473573  -3.9748504963
H    3.5896926782  -2.0219881296   4.1414273196
C    0.5550940401   0.6870763932  -2.2243970862
C    0.9033297765   0.1811752161  -0.9553328297
C    3.1921710413  -1.6509304960   0.7674095643
C    3.5572628306  -2.2505905156   2.0019296857
O   -0.0025114247  -0.4176753034  -0.1581928248
H   -0.4647148678   0.5621563296  -2.5582749094
C    3.4514952608  -2.3498182957  -0.4305040447
C    4.1675116625  -3.5224839905   1.9914431224
H    3.1690076108  -1.8962678254  -1.3683440132
H    4.4411764990  -3.9730600833   2.9342250043
C    4.0492139880  -3.5795116042  -0.4067980865
C    4.4105076963  -4.1720202281   0.8132668327
H    4.2438220021  -4.1045438315  -1.3300961844
H    4.8802777588  -5.1443523583   0.8124941584
H   -2.2353991313  -2.3105253957   2.5964724584
C   -4.1023356024  -1.5045967783   1.0568587613
C   -4.9439512232  -0.5968513914   0.3547307505
C   -3.2651764768   0.6029197448   1.3722356820
C   -2.0112357609  -1.2559787409   2.4424876843
C   -4.4085586627   0.6820665192   0.4327960637
N   -3.0679888906  -0.7162596583   1.6250165180
O   -2.5975818027   1.5133052996   1.8477340959
O   -4.1912858891  -2.7091112440   1.2686943054
H   -5.8438353671  -0.8907885246  -0.1510610233
H   -1.9795628220  -0.7324292370   3.3990467667
H   -4.9470395691   1.6004602562   0.2713236430
H   -1.0521740985  -1.1535258667   1.9321568875
