85
Energy = 0.00 kcal/mol
O    0.407314 2.123187 1.181795
C    0.976057 2.559967 0.204736
O    1.246059 3.869306 0.064058
C    0.967223 4.684503 1.200699
C    1.408363 6.093532 0.881708
C    1.527738 1.783342 -0.905335
N    1.308464 0.441381 -0.946639
C    1.793298 -0.173877 -1.993139
C    1.852942 -1.627966 -2.154199
C    1.807681 -2.512072 -1.064913
C    1.832722 -3.889085 -1.272372
C    1.935983 -4.408452 -2.564304
C    2.030510 -3.536522 -3.651896
C    1.993419 -2.160471 -3.445500
H    -0.108941 4.634463 1.427054
H    1.506494 4.267304 2.063777
H    1.208090 6.753026 1.736631
H    0.867225 6.480769 0.007120
H    2.485192 6.120055 0.665469
H    0.675930 -0.271178 0.353633
H    1.638997 2.332960 -1.847642
H    2.042406 0.414217 -2.887845
H    1.767751 -2.109233 -0.053255
H    1.785670 -4.563745 -0.415254
H    1.958849 -5.488025 -2.722866
H    2.129005 -3.932943 -4.664258
H    2.050373 -1.478665 -4.297855
H    -4.212332 1.920956 4.183739
C    -3.511217 1.660481 3.397091
H    -4.425592 2.084010 1.405739
H    -1.692403 1.810070 5.568704
C    -3.614812 1.744206 2.043023
H    -0.710297 0.476802 4.889674
C    -1.724034 0.874847 4.998855
N    -2.264139 1.134883 3.669690
H    -6.081052 -2.487464 -0.960761
H    -5.976232 -4.630218 0.322461
C    -5.178367 -2.739623 -0.401694
C    -5.121092 -3.952963 0.325686
N    -2.426580 1.268380 1.520602
H    -2.355852 0.141609 5.512442
C    -1.625051 0.909559 2.526249
C    -4.106956 -1.875497 -0.412727
C    -3.984876 -4.269575 1.033437
H    -2.364164 3.336784 -0.081497
H    -4.165779 -0.944807 -0.979778
H    -3.925384 -5.200174 1.602252
C    -2.122227 1.190064 0.120110
C    -2.163867 2.404256 -0.610841
C    -2.916366 -2.176848 0.308364
C    -2.865235 -3.396207 1.044975
H    -0.605351 0.542375 2.398860
C    -1.790112 -1.289785 0.322442
C    -1.687937 -3.701780 1.786667
C    -1.840346 -0.025179 -0.466274
C    -1.919345 2.389125 -1.956726
H    -1.646599 -4.636961 2.349100
H    -1.928646 3.318463 -2.528907
C    -0.625933 -2.842077 1.796631
C    -0.658217 -1.618947 1.059649
C    -1.626491 -0.052378 -1.885995
C    -1.656203 1.162595 -2.629895
O    0.410404 -0.826565 1.186984
H    0.282421 -3.062298 2.359769
C    -1.381128 -1.269543 -2.576109
C    -1.422302 1.126938 -4.030298
H    -1.332201 -2.201653 -2.011106
H    -1.435362 2.066054 -4.587159
C    -1.180809 -1.276554 -3.936666
C    -1.192974 -0.067664 -4.672215
H    -0.985662 -2.220131 -4.448013
H    -1.018307 -0.086976 -5.749076
H    4.306766 -0.551814 2.730134
C    4.271462 -0.369201 -0.517704
C    4.156314 0.820134 -1.333850
C    3.500099 1.323687 0.840132
C    3.705974 -0.925051 1.887883
C    3.591554 1.840015 -0.563260
N    3.772420 -0.021431 0.768309
O    3.226555 1.931524 1.858200
O    4.713325 -1.479451 -0.762386
H    4.537615 0.871965 -2.349777
H    4.104952 -1.889813 1.550804
H    3.699238 2.912979 -0.721503
H    2.662853 -1.050511 2.213130
