85
Energy = 0.00 kcal/mol
O    -1.646661 2.391850 -0.455778
C    -2.801302 2.152201 -0.752615
O    -3.756454 3.096701 -0.761603
C    -3.395843 4.395213 -0.300116
C    -4.616421 5.281177 -0.406744
C    -3.376415 0.845434 -1.089159
N    -2.547415 -0.222531 -1.234328
C    -3.142344 -1.319503 -1.624547
C    -2.525327 -2.644361 -1.664026
C    -3.192762 -3.668658 -2.353484
C    -2.657565 -4.952376 -2.419483
C    -1.447878 -5.237238 -1.783341
C    -0.793795 -4.232892 -1.066247
C    -1.328068 -2.949508 -0.996402
H    -3.040236 4.308800 0.738092
H    -2.566294 4.780395 -0.913376
H    -4.963303 5.335999 -1.448047
H    -4.374745 6.296953 -0.066024
H    -5.435686 4.890375 0.212209
H    -1.073756 -0.077515 -0.562317
H    -4.278885 0.901628 -1.708728
H    -4.131100 -1.241856 -2.095724
H    -4.143813 -3.447037 -2.844504
H    -3.183221 -5.733639 -2.970824
H    -1.020012 -6.239661 -1.839782
H    0.141403 -4.451510 -0.547471
H    -0.822496 -2.181282 -0.410293
H    2.825438 5.098648 1.965607
C    2.479370 4.075778 1.853310
H    4.041803 2.673247 2.614911
H    -0.068031 5.360934 1.634835
C    3.071466 2.894078 2.178872
H    -0.551531 4.181082 0.359893
C    0.281102 4.740614 0.801448
N    1.254725 3.771233 1.297655
H    6.597369 1.093635 -1.477483
H    6.049275 1.986100 -3.746083
C    5.558036 1.125279 -1.809307
C    5.249110 1.629056 -3.096109
N    2.189378 1.894689 1.815536
H    0.759934 5.369539 0.042072
C    1.093696 2.451168 1.282574
C    4.561226 0.675121 -0.974664
C    3.940713 1.662103 -3.519389
H    2.771757 0.663960 4.077773
H    4.817944 0.288209 0.013227
H    3.693663 2.046514 -4.511043
C    2.449327 0.488842 1.936949
C    2.764509 -0.014301 3.223651
C    3.196093 0.704077 -1.382380
C    2.887815 1.201675 -2.683367
H    0.206439 1.919860 0.917612
C    2.135044 0.257022 -0.538124
C    1.526426 1.220783 -3.103773
C    2.421432 -0.304982 0.810193
C    3.045193 -1.346528 3.375083
H    1.289101 1.593491 -4.102728
H    3.287464 -1.748382 4.360629
C    0.519494 0.791723 -2.280677
C    0.816433 0.307499 -0.970823
C    2.701595 -1.701567 0.965779
C    3.014541 -2.223583 2.255194
O    -0.142056 -0.070172 -0.128916
H    -0.523380 0.814902 -2.597687
C    2.687148 -2.586534 -0.147927
C    3.290422 -3.611849 2.391395
H    2.451140 -2.189534 -1.135763
H    3.522805 -4.007407 3.381553
C    2.963085 -3.923052 0.015297
C    3.263405 -4.443529 1.298249
H    2.946421 -4.589650 -0.848293
H    3.472513 -5.507869 1.413953
H    -1.695889 -2.270966 2.664204
C    -3.710873 -1.825155 1.119924
C    -4.745120 -1.081592 0.432403
C    -3.336293 0.410231 1.528716
C    -1.687924 -1.185319 2.505385
C    -4.491718 0.286807 0.574976
N    -2.834256 -0.859385 1.691718
O    -2.887240 1.414292 2.051811
O    -3.539833 -3.023980 1.266116
H    -5.591928 -1.566418 -0.044778
H    -1.747564 -0.666645 3.472914
H    -5.214580 1.100600 0.521094
H    -0.753297 -0.897625 2.000782
