          85
 
O      -1.6358407      2.4010615     -0.4439649
C      -2.7853724      2.1546141     -0.7697671
O      -3.7512288      3.0971215     -0.7669480
C      -3.3952379      4.3920064     -0.2979752
C      -4.6158536      5.2787370     -0.4062971
C      -3.3295618      0.8701987     -1.1615866
N      -2.5499496     -0.2210180     -1.2423344
C      -3.1423364     -1.3224196     -1.6336070
C      -2.5259366     -2.6443118     -1.6645652
C      -3.1923919     -3.6712821     -2.3530019
C      -2.6567780     -4.9544635     -2.4184238
C      -1.4467823     -5.2397046     -1.7828978
C      -0.7935339     -4.2339195     -1.0667398
C      -1.3273301     -2.9505549     -0.9977414
H      -3.0430172      4.3053545      0.7415096
H      -2.5635788      4.7831018     -0.9053554
H      -4.9604959      5.3346287     -1.4483702
H      -4.3755016      6.2943454     -0.0638802
H      -5.4370325      4.8873591      0.2099247
H      -1.0687037     -0.0746982     -0.5604117
H      -4.2891753      0.8979324     -1.6951691
H      -4.1318881     -1.2433919     -2.1029465
H      -4.1429780     -3.4503309     -2.8452889
H      -3.1825611     -5.7356857     -2.9699260
H      -1.0184366     -6.2418693     -1.8392179
H       0.1421618     -4.4513655     -0.5481534
H      -0.8199753     -2.1824761     -0.4129617
H       2.8256690      5.0985655      1.9658286
C       2.4793929      4.0757854      1.8533707
H       4.0415239      2.6728101      2.6147914
H      -0.0665376      5.3622836      1.6349567
C       3.0712418      2.8939453      2.1787897
H      -0.5526526      4.1806916      0.3618944
C       0.2808052      4.7409084      0.8015792
N       1.2547153      3.7715726      1.2976908
H       6.5975600      1.0938155     -1.4776697
H       6.0492078      1.9861977     -3.7462069
C       5.5582037      1.1253227     -1.8094244
C       5.2491068      1.6290562     -3.0962062
N       2.1888757      1.8947453      1.8152764
H       0.7593448      5.3689436      0.0412425
C       1.0931519      2.4516278      1.2822206
C       4.5614830      0.6750911     -0.9747510
C       3.9407104      1.6620303     -3.5194822
H       2.7715558      0.6640790      4.0776459
H       4.8181811      0.2882264      0.0131618
H       3.6936164      2.0465045     -4.5110937
C       2.4490619      0.4889975      1.9368307
C       2.7643127     -0.0142094      3.2235415
C       3.1964248      0.7040014     -1.3825051
C       2.8878557      1.2015537     -2.6834064
H       0.2046688      1.9226771      0.9160569
C       2.1355333      0.2569543     -0.5381682
C       1.5263624      1.2211706     -3.1034561
C       2.4216199     -0.3050108      0.8101958
C       3.0451625     -1.3464197      3.3750338
H       1.2887786      1.5944047     -4.1021301
H       3.2875556     -1.7481793      4.3605943
C       0.5194251      0.7927463     -2.2799706
C       0.8172769      0.3079864     -0.9707728
C       2.7016796     -1.7015987      0.9657719
C       3.0145665     -2.2235779      2.2552148
O      -0.1405190     -0.0706339     -0.1278531
H      -0.5235278      0.8186462     -2.5966002
C       2.6871580     -2.5865700     -0.1479269
C       3.2904488     -3.6118457      2.3914285
H       2.4509741     -2.1896550     -1.1357516
H       3.5228824     -4.0073966      3.3815814
C       2.9630695     -3.9230824      0.0153200
C       3.2634305     -4.4435268      1.2982742
H       2.9462617     -4.5896984     -0.8482471
H       3.4725648     -5.5078641      1.4139758
H      -1.6878702     -2.2670278      2.6676532
C      -3.6991690     -1.8254881      1.1275718
C      -4.7659069     -1.0782784      0.4570413
C      -3.3524875      0.4093466      1.5351407
C      -1.6829157     -1.1824601      2.5015079
C      -4.5549377      0.2634752      0.6513564
N      -2.8324680     -0.8630744      1.6884367
O      -2.8928301      1.4112337      2.0503198
O      -3.5371715     -3.0231973      1.2580834
H      -5.6019768     -1.5758376     -0.0269649
H      -1.7436932     -0.6578724      3.4655919
H      -5.2418643      1.0997516      0.5115446
H      -0.7499519     -0.8960897      1.9938610
