85
Energy = 0.00 kcal/mol
O    -1.638634 2.627285 -0.620807
C    -2.786710 2.320037 -0.867884
O    -3.789180 3.221832 -0.909054
C    -3.461239 4.582541 -0.649737
C    -4.648073 5.430240 -1.046255
C    -3.310894 0.978572 -1.111039
N    -2.458391 -0.067633 -1.220509
C    -2.981165 -1.222686 -1.536190
C    -2.283350 -2.508351 -1.482973
C    -2.914146 -3.628997 -2.047546
C    -2.327772 -4.890464 -1.985086
C    -1.100013 -5.059819 -1.342817
C    -0.470804 -3.956289 -0.762104
C    -1.053454 -2.693507 -0.826884
H    -3.230185 4.696519 0.420431
H    -2.558675 4.852378 -1.218102
H    -4.436810 6.489037 -0.845715
H    -5.539882 5.137538 -0.475280
H    -4.864251 5.312130 -2.116859
H    -1.012280 0.216099 -0.559039
H    -4.278740 0.941504 -1.622198
H    -3.992678 -1.247855 -1.965061
H    -3.880816 -3.502698 -2.541185
H    -2.833576 -5.747038 -2.434353
H    -0.640597 -6.048215 -1.286750
H    0.482743 -4.078211 -0.243402
H    -0.561850 -1.847201 -0.347828
H    1.982236 4.840871 0.967864
C    1.745183 3.821119 1.254299
H    3.585969 2.559906 1.139618
H    -0.584885 5.031243 2.479442
C    2.530129 2.713317 1.342390
H    -1.576770 3.660285 1.838199
C    -0.704706 4.301417 1.669881
N    0.469765 3.439425 1.617697
H    6.701477 0.408623 -1.627967
H    6.229679 1.416814 -3.866804
C    5.669946 0.600922 -1.928116
C    5.404045 1.172725 -3.196941
N    1.713448 1.681389 1.763520
H    -0.811407 4.805944 0.704379
C    0.468458 2.145542 1.908936
C    4.640835 0.285806 -1.070867
C    4.105103 1.418812 -3.576664
H    1.926517 0.368481 4.065462
H    4.858012 -0.155358 -0.095744
H    3.885829 1.861590 -4.550962
C    2.102272 0.306332 1.904211
C    2.157885 -0.254966 3.201027
C    3.285646 0.526177 -1.438251
C    3.020454 1.106442 -2.714355
H    -0.425226 1.572288 2.166481
C    2.193826 0.215323 -0.575276
C    1.669676 1.364455 -3.085994
C    2.382108 -0.411912 0.759691
C    2.503811 -1.574565 3.342668
H    1.470554 1.805398 -4.065307
H    2.552011 -2.028643 4.333790
C    0.632233 1.081244 -2.238409
C    0.889135 0.507478 -0.957500
C    2.743417 -1.790040 0.900519
C    2.806050 -2.369916 2.202867
O    -0.095753 0.243962 -0.103777
H    -0.401964 1.298018 -2.506741
C    3.021627 -2.608013 -0.231119
C    3.159848 -3.741828 2.332607
H    2.953256 -2.171664 -1.228364
H    3.206231 -4.177895 3.332430
C    3.363400 -3.929498 -0.072009
C    3.436015 -4.502983 1.222915
H    3.572958 -4.545302 -0.947851
H    3.707616 -5.553744 1.334089
H    -1.408019 -0.666287 3.453003
C    -3.560345 -1.696843 1.236324
C    -4.611527 -0.901359 0.633073
C    -3.031328 0.516203 1.567576
C    -1.413860 -1.152508 2.465477
C    -4.284506 0.442008 0.752341
N    -2.587935 -0.768949 1.720073
O    -2.476871 1.507029 2.024849
O    -3.444267 -2.896715 1.395573
H    -5.515835 -1.342574 0.222765
H    -0.497747 -0.883074 1.919061
H    -4.959332 1.296452 0.718680
H    -1.450616 -2.241510 2.592117
