85
Energy = 0.00 kcal/mol
O    -1.915058 1.857869 -1.926352
C    -3.122817 1.700953 -1.823007
O    -3.978702 2.701602 -2.047809
C    -3.415416 3.969772 -2.391298
C    -4.556520 4.926849 -2.643349
C    -3.790053 0.472240 -1.400813
N    -2.993101 -0.622384 -1.275643
C    -3.550889 -1.764735 -1.048998
C    -2.757500 -2.942012 -0.679183
C    -3.397734 -4.149371 -0.367476
C    -2.656362 -5.273863 -0.006174
C    -1.263941 -5.203493 0.053886
C    -0.618415 -3.996643 -0.239338
C    -1.356107 -2.873030 -0.597484
H    -2.767527 4.303509 -1.567220
H    -2.779997 3.849766 -3.280763
H    -5.189536 4.562579 -3.464163
H    -4.163688 5.914203 -2.919781
H    -5.177424 5.037193 -1.743831
H    -0.820060 0.728991 -1.246921
H    -4.832585 0.373040 -1.731008
H    -4.637062 -1.910947 -1.160880
H    -4.488427 -4.200683 -0.405485
H    -3.168533 -6.208365 0.232547
H    -0.681965 -6.083847 0.334036
H    0.470469 -3.933095 -0.187042
H    -0.862609 -1.923220 -0.816962
H    2.239368 4.144226 3.493685
C    1.954772 3.226662 2.988131
H    3.500059 1.658887 3.359178
H    -1.062441 3.741404 1.554782
C    2.570694 2.013685 2.924782
H    0.251130 4.966207 1.391136
C    -0.182877 4.189005 2.030624
N    0.799871 3.128940 2.241711
H    6.891588 1.138400 -0.288654
H    6.884245 2.874500 -2.086985
C    5.950183 1.419976 -0.763954
C    5.947741 2.404945 -1.782621
N    1.775533 1.204449 2.136092
H    -0.457168 4.615154 3.001831
C    0.710733 1.905211 1.732254
C    4.779197 0.813437 -0.369551
C    4.763326 2.762819 -2.382976
H    1.893908 -0.785455 3.862429
H    4.795991 0.054017 0.414528
H    4.743107 3.520797 -3.169273
C    2.053628 -0.160739 1.789310
C    2.100680 -1.108671 2.841237
C    3.537486 1.160449 -0.976514
C    3.538370 2.155263 -1.998070
H    -0.119953 1.543580 1.119072
C    2.302439 0.549795 -0.595634
C    2.302659 2.516537 -2.604230
C    2.285337 -0.491752 0.470041
C    2.401634 -2.414039 2.555089
H    2.303643 3.283694 -3.381635
H    2.447281 -3.156901 3.352737
C    1.126066 1.925326 -2.228866
C    1.118535 0.919867 -1.216713
C    2.581947 -1.860209 0.164264
C    2.657517 -2.819973 1.216379
O    -0.015787 0.321612 -0.829475
H    0.176683 2.210625 -2.680718
C    2.833649 -2.283643 -1.170411
C    2.995750 -4.165968 0.905856
H    2.769042 -1.551796 -1.976411
H    3.054277 -4.891809 1.719092
C    3.158113 -3.592375 -1.440399
C    3.245084 -4.542556 -0.392200
H    3.351278 -3.903353 -2.468087
H    3.507703 -5.575793 -0.622242
H    -1.051100 -0.082833 2.974864
C    -3.881123 -1.111180 1.727057
C    -4.916344 -0.362714 1.068684
C    -2.966252 0.906420 1.087573
C    -1.410002 -0.714770 2.145398
C    -4.372657 0.822441 0.564405
N    -2.702878 -0.288894 1.678123
O    -2.176533 1.839600 0.987172
O    -3.877885 -2.192728 2.292389
H    -5.937778 -0.721883 0.978294
H    -0.680706 -0.692822 1.320654
H    -4.912625 1.744508 0.344292
H    -1.518962 -1.747360 2.499629
