85
0 0 10.000000
O       -1.9676050        1.8199600       -1.9973350
C       -3.1740810        1.6299380       -1.9350270
O       -4.0577140        2.5925230       -2.2214590
C       -3.5390730        3.9069230       -2.4479490
C       -3.2608160        4.5918580       -1.1247620
C       -3.8139820        0.3982490       -1.4926980
N       -2.9974380       -0.6777750       -1.3279410
C       -3.5366100       -1.8211510       -1.0648390
C       -2.7281980       -2.9728690       -0.6493550
C       -3.3505320       -4.1808070       -0.3066670
C       -2.5931870       -5.2835190        0.0863390
C       -1.2027700       -5.1886970        0.1493300
C       -0.5758590       -3.9789990       -0.1681720
C       -1.3294970       -2.8765640       -0.5567190
H       -2.6288720        3.8341440       -3.0571760
H       -4.3136970        4.4257770       -3.0251560
H       -2.5434170        3.9928400       -0.5466820
H       -4.1886670        4.6883070       -0.5429600
H       -2.8478710        5.5965990       -1.2914620
H       -0.8815540        0.6988440       -1.2961640
H       -4.8530640        0.2659960       -1.8217370
H       -4.6202570       -1.9864060       -1.1748240
H       -4.4400930       -4.2500790       -0.3457380
H       -3.0899620       -6.2209710        0.3439090
H       -0.6059230       -6.0517900        0.4504930
H        0.5104360       -3.8957030       -0.1154300
H       -0.8529300       -1.9225840       -0.7926740
H        2.1269810        4.2339700        3.3820850
C        1.8513190        3.3043300        2.8933610
H        3.4114400        1.7561440        3.2930310
H        0.0971000        4.9655520        1.2158760
C        2.4789460        2.0963410        2.8528250
H       -0.5188430        4.7114310        2.8826510
C       -0.2977150        4.2283570        1.9248850
N        0.6979790        3.1823330        2.1482820
H        6.8179460        1.1745730       -0.3157460
H        6.8141200        2.8733190       -2.1482400
C        5.8783360        1.4434150       -0.8008310
C        5.8773970        2.4069550       -1.8397660
N        1.6918730        1.2664130        2.0774360
H       -1.2001320        3.7505520        1.5272040
C        0.6213890        1.9498500        1.6584180
C        4.7084400        0.8401150       -0.4002050
C        4.6953170        2.7475100       -2.4539400
H        1.8160600       -0.6853580        3.8466310
H        4.7233070        0.0965320        0.3988940
H        4.6776650        3.4886400       -3.2563190
C        1.9815060       -0.1033580        1.7617980
C        2.0324300       -1.0281500        2.8341130
C        3.4697490        1.1696010       -1.0207710
C        3.4705830        2.1439060       -2.0617000
H       -0.2031460        1.5705100        1.0467230
C        2.2376220        0.5585680       -0.6348510
C        2.2360550        2.4848990       -2.6811590
C        2.2214080       -0.4603370        0.4516160
C        2.3517280       -2.3357620        2.5782320
H        2.2375490        3.2361830       -3.4738910
H        2.4035140       -3.0607600        3.3921110
C        1.0612090        1.8924150       -2.3009370
C        1.0551410        0.9088260       -1.2675380
C        2.5300500       -1.8319550        0.1761960
C        2.6191750       -2.7669370        1.2496890
O       -0.0742100        0.3088150       -0.8694050
H        0.1134800        2.1590210       -2.7668070
C        2.7797800       -2.2820630       -1.1497410
C        2.9805300       -4.1135900        0.9692720
H        2.6986150       -1.5706540       -1.9732190
H        3.0545650       -4.8198770        1.7981930
C        3.1210030       -3.5923210       -1.3892490
C        3.2314500       -4.5167580       -0.3201690
H        3.3108300       -3.9253610       -2.4098460
H        3.5129240       -5.5503590       -0.5275220
H       -1.5647070       -1.6720950        2.5188090
C       -3.9176370       -1.0917270        1.6791340
C       -4.9511160       -0.3727130        0.9871810
C       -3.0173190        0.9199940        1.0010940
C       -1.4595360       -0.6513290        2.1303110
C       -4.4122850        0.8035160        0.4572410
N       -2.7478030       -0.2555490        1.6261970
O       -2.2403270        1.8642170        0.8932670
O       -3.9091940       -2.1571320        2.2747760
H       -5.9661650       -0.7470550        0.8851100
H       -1.1209830        0.0132010        2.9427050
H       -4.9589240        1.7121730        0.2000610
H       -0.7174610       -0.6512470        1.3171050
