85
0 0 10.000000
O       -1.6257430        2.4640250       -0.8218930
C       -2.8059860        2.1784410       -0.9064500
O       -3.7839780        3.0870860       -0.7308680
C       -3.3981440        4.3769870       -0.2678480
C       -4.6403570        5.2334260       -0.1852860
C       -3.3816810        0.8568160       -1.1175760
N       -2.5746350       -0.2123440       -1.3387060
C       -3.1719150       -1.3488550       -1.5748980
C       -2.5136290       -2.6560390       -1.6213060
C       -3.1997330       -3.7247390       -2.2216460
C       -2.6391350       -4.9983370       -2.2731840
C       -1.3834830       -5.2312820       -1.7094480
C       -0.7025610       -4.1815290       -1.0890420
C       -1.2587620       -2.9060880       -1.0388220
H       -2.9204570        4.2593210        0.7172260
H       -2.6570870        4.8066950       -0.9594550
H       -5.1086320        5.3290750       -1.1744610
H       -4.3805140        6.2369780        0.1770440
H       -5.3695530        4.7902160        0.5064200
H       -1.0891750       -0.0120950       -0.7862200
H       -4.4024330        0.8510490       -1.5145370
H       -4.2291860       -1.3392770       -1.8750200
H       -4.1854410       -3.5458300       -2.6580550
H       -3.1847410       -5.8133110       -2.7520940
H       -0.9422500       -6.2289230       -1.7437950
H        0.2701460       -4.3570780       -0.6259940
H       -0.7284220       -2.1023780       -0.5266440
H        2.5176570        5.0395200        2.0303410
C        2.1685710        4.0193390        1.9043210
H        3.7101660        2.5960440        2.6695380
H       -0.5334500        5.1687640        1.6806430
C        2.7495140        2.8304850        2.2208650
H       -0.7147740        4.1805720        0.1831890
C       -0.0100330        4.7087990        0.8337500
N        0.9517560        3.7287270        1.3259690
H        6.6507290        0.9536060       -1.2653070
H        6.2638770        1.8707180       -3.5577610
C        5.6328200        1.0321060       -1.6511390
C        5.4150310        1.5516030       -2.9514990
N        1.8680870        1.8420160        1.8285730
H        0.5290790        5.4756170        0.2669620
C        0.7830390        2.4098260        1.2881520
C        4.5743430        0.6252090       -0.8717230
C        4.1339590        1.6489780       -3.4433590
H        2.1028850        0.5121920        4.0933860
H        4.7519430        0.2247190        0.1288380
H        3.9522310        2.0460010       -4.4447410
C        2.1253970        0.4336460        1.9249240
C        2.2346490       -0.1283860        3.2204720
C        3.2374520        0.7166360       -1.3540660
C        3.0197290        1.2352910       -2.6656470
H       -0.1028150        1.8860510        0.9093020
C        2.1160010        0.3020110       -0.5785540
C        1.6862360        1.3204650       -3.1604720
C        2.2712560       -0.3079230        0.7712110
C        2.4841680       -1.4690610        3.3523200
H        1.5249160        1.7180570       -4.1649440
H        2.5634300       -1.9204650        4.3426720
C        0.6182560        0.9225380       -2.4013260
C        0.8291990        0.4019220       -1.0901180
C        2.5261390       -1.7119880        0.9038530
C        2.6340730       -2.2927150        2.2021690
O       -0.1772880        0.0154530       -0.3140390
H       -0.4060720        1.0014370       -2.7670700
C        2.6786870       -2.5483320       -0.2373480
C        2.8889300       -3.6867870        2.3195770
H        2.5877080       -2.1078520       -1.2312950
H        2.9651950       -4.1229500        3.3174690
C        2.9345630       -3.8912470       -0.0910000
C        3.0386530       -4.4683950        1.1995640
H        3.0510040       -4.5207110       -0.9746710
H        3.2368050       -5.5364580        1.2998350
H       -1.1988900       -2.2577430        2.6124460
C       -3.3583860       -1.7543470        1.3297340
C       -4.4586230       -0.9786840        0.7926950
C       -2.7877110        0.4671350        1.5199100
C       -1.1401270       -1.1834410        2.3989010
C       -4.1170060        0.3676760        0.8263430
N       -2.3470070       -0.8193560        1.6967120
O       -2.1862770        1.4725930        1.8621070
O       -3.2300340       -2.9504910        1.5137940
H       -5.4008020       -1.4304130        0.4942990
H       -1.0630250       -0.6208650        3.3412440
H       -4.7938400        1.2213310        0.8492890
H       -0.2535010       -0.9784800        1.7837300
