85
Energy = 0.00 kcal/mol # From:censo_3
O    -1.625743 2.464025 -0.821893
C    -2.805986 2.178441 -0.906450
O    -3.783978 3.087086 -0.730868
C    -3.398144 4.376987 -0.267848
C    -4.640357 5.233426 -0.185286
C    -3.381681 0.856816 -1.117576
N    -2.574635 -0.212344 -1.338706
C    -3.171915 -1.348855 -1.574898
C    -2.513629 -2.656039 -1.621306
C    -3.199733 -3.724739 -2.221646
C    -2.639135 -4.998337 -2.273184
C    -1.383483 -5.231282 -1.709448
C    -0.702561 -4.181529 -1.089042
C    -1.258762 -2.906088 -1.038822
H    -2.920457 4.259321 0.717226
H    -2.657087 4.806695 -0.959455
H    -5.108632 5.329075 -1.174461
H    -4.380514 6.236978 0.177044
H    -5.369553 4.790216 0.506420
H    -1.089175 -0.012095 -0.786220
H    -4.402433 0.851049 -1.514537
H    -4.229186 -1.339277 -1.875020
H    -4.185441 -3.545830 -2.658055
H    -3.184741 -5.813311 -2.752094
H    -0.942250 -6.228923 -1.743795
H    0.270146 -4.357078 -0.625994
H    -0.728422 -2.102378 -0.526644
H    2.517657 5.039520 2.030341
C    2.168571 4.019339 1.904321
H    3.710166 2.596044 2.669538
H    -0.533450 5.168764 1.680643
C    2.749514 2.830485 2.220865
H    -0.714774 4.180572 0.183189
C    -0.010033 4.708799 0.833750
N    0.951756 3.728727 1.325969
H    6.650729 0.953606 -1.265307
H    6.263877 1.870718 -3.557761
C    5.632820 1.032106 -1.651139
C    5.415031 1.551603 -2.951499
N    1.868087 1.842016 1.828573
H    0.529079 5.475617 0.266962
C    0.783039 2.409826 1.288152
C    4.574343 0.625209 -0.871723
C    4.133959 1.648978 -3.443359
H    2.102885 0.512192 4.093386
H    4.751943 0.224719 0.128838
H    3.952231 2.046001 -4.444741
C    2.125397 0.433646 1.924924
C    2.234649 -0.128386 3.220472
C    3.237452 0.716636 -1.354066
C    3.019729 1.235291 -2.665647
H    -0.102815 1.886051 0.909302
C    2.116001 0.302011 -0.578554
C    1.686236 1.320465 -3.160472
C    2.271256 -0.307923 0.771211
C    2.484168 -1.469061 3.352320
H    1.524916 1.718057 -4.164944
H    2.563430 -1.920465 4.342672
C    0.618256 0.922538 -2.401326
C    0.829199 0.401922 -1.090118
C    2.526139 -1.711988 0.903853
C    2.634073 -2.292715 2.202169
O    -0.177288 0.015453 -0.314039
H    -0.406072 1.001437 -2.767070
C    2.678687 -2.548332 -0.237348
C    2.888930 -3.686787 2.319577
H    2.587708 -2.107852 -1.231295
H    2.965195 -4.122950 3.317469
C    2.934563 -3.891247 -0.091000
C    3.038653 -4.468395 1.199564
H    3.051004 -4.520711 -0.974671
H    3.236805 -5.536458 1.299835
H    -1.198890 -2.257743 2.612446
C    -3.358386 -1.754347 1.329734
C    -4.458623 -0.978684 0.792695
C    -2.787711 0.467135 1.519910
C    -1.140127 -1.183441 2.398901
C    -4.117006 0.367676 0.826343
N    -2.347007 -0.819356 1.696712
O    -2.186277 1.472593 1.862107
O    -3.230034 -2.950491 1.513794
H    -5.400802 -1.430413 0.494299
H    -1.063025 -0.620865 3.341244
H    -4.793840 1.221331 0.849289
H    -0.253501 -0.978480 1.783730
85
Energy = 0.00 kcal/mol # From:censo_4
O    -1.693163 2.460457 -0.784928
C    -2.874018 2.165907 -0.825909
O    -3.849399 3.055695 -0.563749
C    -3.450324 4.321634 -0.050217
C    -4.697746 5.138994 0.192557
C    -3.445924 0.849394 -1.067266
N    -2.634588 -0.205544 -1.333731
C    -3.222841 -1.338672 -1.602130
C    -2.545799 -2.632684 -1.707500
C    -3.210699 -3.681785 -2.363729
C    -2.625890 -4.940366 -2.478388
C    -1.367131 -5.177970 -1.923778
C    -0.706940 -4.148425 -1.249396
C    -1.287336 -2.888076 -1.134933
H    -2.886175 4.152661 0.880278
H    -2.781305 4.814582 -0.772963
H    -4.428232 6.126363 0.590567
H    -5.353095 4.636960 0.917334
H    -5.253847 5.279760 -0.744360
H    -1.139720 -0.003899 -0.774823
H    -4.475835 0.845923 -1.439628
H    -4.285401 -1.332239 -1.883713
H    -4.197849 -3.498767 -2.795184
H    -3.154430 -5.739846 -3.000633
H    -0.907042 -6.164016 -2.007392
H    0.267748 -4.329379 -0.792638
H    -0.774596 -2.101679 -0.579322
H    2.566550 5.089092 1.802049
C    2.192862 4.072405 1.730511
H    3.714866 2.651472 2.538452
H    -0.471470 5.288604 1.482611
C    2.752283 2.886969 2.094531
H    -0.714366 4.222109 0.048818
C    0.019758 4.763468 0.654500
N    0.960597 3.782898 1.185341
H    6.607531 0.810265 -1.322610
H    6.221090 1.657693 -3.641667
C    5.588389 0.896134 -1.703559
C    5.370770 1.376008 -3.019093
N    1.842382 1.901660 1.764273
H    0.571471 5.478303 0.034281
C    0.761148 2.467522 1.214222
C    4.528077 0.537603 -0.903291
C    4.088356 1.482986 -3.505213
H    2.063516 0.656001 4.076892
H    4.705505 0.167304 0.108847
H    3.907294 1.850138 -4.518046
C    2.081232 0.494215 1.913391
C    2.191687 -0.018001 3.229057
C    3.189572 0.639010 -1.379403
C    2.972067 1.118372 -2.706101
H    -0.140692 1.943867 0.873418
C    2.066425 0.270182 -0.583249
C    1.636813 1.216577 -3.193598
C    2.221134 -0.291237 0.787714
C    2.442468 -1.352478 3.411190
H    1.475726 1.587174 -4.208382
H    2.525183 -1.765930 4.417743
C    0.567132 0.862422 -2.415315
C    0.778461 0.375306 -1.091355
C    2.475393 -1.689193 0.973315
C    2.591506 -2.218503 2.292878
O    -0.230635 0.024516 -0.301740
H    -0.458679 0.949813 -2.775552
C    2.625552 -2.569109 -0.135019
C    2.856432 -3.604994 2.464068
H    2.525901 -2.168758 -1.145170
H    2.941214 -4.000716 3.477989
C    2.890964 -3.903545 0.063300
C    3.007141 -4.428517 1.374996
H    3.008480 -4.566749 -0.795176
H    3.215430 -5.489997 1.516022
H    -1.127556 -2.382057 2.414075
C    -3.371889 -1.832570 1.310147
C    -4.484165 -1.044960 0.816012
C    -2.800907 0.384136 1.548801
C    -1.139373 -1.286425 2.362095
C    -4.144298 0.299289 0.879965
N    -2.357055 -0.906080 1.687930
O    -2.193179 1.381946 1.900704
O    -3.238664 -3.033510 1.455472
H    -5.428917 -1.491279 0.517546
H    -1.110069 -0.868683 3.380029
H    -4.820168 1.152228 0.933770
H    -0.264628 -0.935399 1.800202
85
Energy = 0.00 kcal/mol # From:censo_8
O    -1.638634 2.627285 -0.620807
C    -2.786710 2.320037 -0.867884
O    -3.789180 3.221832 -0.909054
C    -3.461239 4.582541 -0.649737
C    -4.648073 5.430240 -1.046255
C    -3.310894 0.978572 -1.111039
N    -2.458391 -0.067633 -1.220509
C    -2.981165 -1.222686 -1.536190
C    -2.283350 -2.508351 -1.482973
C    -2.914146 -3.628997 -2.047546
C    -2.327772 -4.890464 -1.985086
C    -1.100013 -5.059819 -1.342817
C    -0.470804 -3.956289 -0.762104
C    -1.053454 -2.693507 -0.826884
H    -3.230185 4.696519 0.420431
H    -2.558675 4.852378 -1.218102
H    -4.436810 6.489037 -0.845715
H    -5.539882 5.137538 -0.475280
H    -4.864251 5.312130 -2.116859
H    -1.012280 0.216099 -0.559039
H    -4.278740 0.941504 -1.622198
H    -3.992678 -1.247855 -1.965061
H    -3.880816 -3.502698 -2.541185
H    -2.833576 -5.747038 -2.434353
H    -0.640597 -6.048215 -1.286750
H    0.482743 -4.078211 -0.243402
H    -0.561850 -1.847201 -0.347828
H    1.982236 4.840871 0.967864
C    1.745183 3.821119 1.254299
H    3.585969 2.559906 1.139618
H    -0.584885 5.031243 2.479442
C    2.530129 2.713317 1.342390
H    -1.576770 3.660285 1.838199
C    -0.704706 4.301417 1.669881
N    0.469765 3.439425 1.617697
H    6.701477 0.408623 -1.627967
H    6.229679 1.416814 -3.866804
C    5.669946 0.600922 -1.928116
C    5.404045 1.172725 -3.196941
N    1.713448 1.681389 1.763520
H    -0.811407 4.805944 0.704379
C    0.468458 2.145542 1.908936
C    4.640835 0.285806 -1.070867
C    4.105103 1.418812 -3.576664
H    1.926517 0.368481 4.065462
H    4.858012 -0.155358 -0.095744
H    3.885829 1.861590 -4.550962
C    2.102272 0.306332 1.904211
C    2.157885 -0.254966 3.201027
C    3.285646 0.526177 -1.438251
C    3.020454 1.106442 -2.714355
H    -0.425226 1.572288 2.166481
C    2.193826 0.215323 -0.575276
C    1.669676 1.364455 -3.085994
C    2.382108 -0.411912 0.759691
C    2.503811 -1.574565 3.342668
H    1.470554 1.805398 -4.065307
H    2.552011 -2.028643 4.333790
C    0.632233 1.081244 -2.238409
C    0.889135 0.507478 -0.957500
C    2.743417 -1.790040 0.900519
C    2.806050 -2.369916 2.202867
O    -0.095753 0.243962 -0.103777
H    -0.401964 1.298018 -2.506741
C    3.021627 -2.608013 -0.231119
C    3.159848 -3.741828 2.332607
H    2.953256 -2.171664 -1.228364
H    3.206231 -4.177895 3.332430
C    3.363400 -3.929498 -0.072009
C    3.436015 -4.502983 1.222915
H    3.572958 -4.545302 -0.947851
H    3.707616 -5.553744 1.334089
H    -1.408019 -0.666287 3.453003
C    -3.560345 -1.696843 1.236324
C    -4.611527 -0.901359 0.633073
C    -3.031328 0.516203 1.567576
C    -1.413860 -1.152508 2.465477
C    -4.284506 0.442008 0.752341
N    -2.587935 -0.768949 1.720073
O    -2.476871 1.507029 2.024849
O    -3.444267 -2.896715 1.395573
H    -5.515835 -1.342574 0.222765
H    -0.497747 -0.883074 1.919061
H    -4.959332 1.296452 0.718680
H    -1.450616 -2.241510 2.592117
85
Energy = 0.00 kcal/mol # From:censo_9
O    -1.472063 2.313391 -0.915711
C    -2.641513 2.090400 -1.150971
O    -3.552532 3.070669 -1.303462
C    -3.104507 4.417068 -1.171958
C    -4.157407 5.318784 -1.774525
C    -3.288795 0.780748 -1.244958
N    -2.525025 -0.339681 -1.329848
C    -3.173369 -1.464966 -1.482830
C    -2.583213 -2.803262 -1.391837
C    -3.334018 -3.892510 -1.863848
C    -2.843194 -5.193014 -1.777865
C    -1.591864 -5.431320 -1.206383
C    -0.844219 -4.358181 -0.716656
C    -1.333717 -3.057622 -0.800123
H    -2.957189 4.639392 -0.103751
H    -2.133221 4.525095 -1.675670
H    -3.852764 6.369260 -1.676592
H    -5.120389 5.185069 -1.262906
H    -4.293332 5.090903 -2.840607
H    -1.039421 -0.180872 -0.820844
H    -4.272589 0.789010 -1.726916
H    -4.212778 -1.431611 -1.836707
H    -4.315852 -3.710046 -2.307622
H    -3.439933 -6.024892 -2.156241
H    -1.205277 -6.449419 -1.134859
H    0.129591 -4.533004 -0.253549
H    -0.746421 -2.234354 -0.394633
H    1.897950 4.796827 2.738279
C    1.712510 3.772291 2.431089
H    3.385388 2.467847 3.130294
H    -0.588321 5.103777 2.027019
C    2.439064 2.637285 2.625705
H    -1.402430 3.702969 1.233149
C    -0.487491 4.301369 1.288826
N    0.588608 3.413045 1.718137
H    6.663290 1.253769 -0.894823
H    6.330984 2.259504 -3.158431
C    5.664314 1.278691 -1.333682
C    5.477476 1.848532 -2.617429
N    1.739859 1.611833 2.018818
H    -0.251823 4.716494 0.301857
C    0.622831 2.108220 1.473278
C    4.599117 0.756224 -0.636442
C    4.220674 1.878017 -3.176579
H    2.076729 0.160871 4.186797
H    4.752845 0.318095 0.352057
H    4.063910 2.311610 -4.166992
C    2.111969 0.226854 2.016643
C    2.239059 -0.414665 3.274432
C    3.286353 0.778756 -1.187998
C    3.100493 1.346602 -2.483758
H    -0.147566 1.545127 0.940139
C    2.157209 0.253194 -0.494768
C    1.792089 1.358626 -3.048640
C    2.296004 -0.431976 0.820039
C    2.535533 -1.750821 3.321937
H    1.655838 1.786425 -4.044343
H    2.628068 -2.260955 4.282192
C    0.716890 0.855694 -2.366703
C    0.893544 0.297195 -1.066214
C    2.586203 -1.835634 0.863862
C    2.704813 -2.496204 2.121992
O    -0.119333 -0.182776 -0.352930
H    -0.288030 0.878825 -2.788836
C    2.747440 -2.596143 -0.328134
C    2.983183 -3.890195 2.150842
H    2.648563 -2.095688 -1.292283
H    3.071030 -4.386536 3.119297
C    3.016161 -3.943038 -0.268043
C    3.135872 -4.598307 0.983170
H    3.133109 -4.514355 -1.190131
H    3.348655 -5.667857 1.015207
H    -1.463519 -1.828082 3.073852
C    -3.449971 -1.580717 1.390904
C    -4.515197 -0.857677 0.727771
C    -2.895278 0.651047 1.434333
C    -1.267320 -0.925688 2.481262
C    -4.168056 0.491049 0.661292
N    -2.453072 -0.614650 1.720082
O    -2.331258 1.685585 1.758871
O    -3.332982 -2.752987 1.697192
H    -5.447748 -1.330494 0.432554
H    -1.039365 -0.082098 3.148568
H    -4.846961 1.339709 0.579970
H    -0.404384 -1.103696 1.822073
85
Energy = 0.00 kcal/mol # From:censo_2
O    -1.615401 2.377996 -1.032759
C    -2.780062 2.108360 -1.252994
O    -3.738681 3.047191 -1.393129
C    -3.418719 4.391603 -1.039108
C    -3.743194 4.625215 0.424856
C    -3.372177 0.775702 -1.323738
N    -2.572143 -0.321964 -1.394717
C    -3.185461 -1.468375 -1.520795
C    -2.556150 -2.785291 -1.389702
C    -3.263260 -3.909964 -1.845573
C    -2.731964 -5.191119 -1.717684
C    -1.484957 -5.373583 -1.117016
C    -0.782874 -4.264685 -0.639178
C    -1.311652 -2.983214 -0.767000
H    -2.359842 4.582177 -1.260860
H    -4.028794 5.026978 -1.693308
H    -4.825478 4.534865 0.594773
H    -3.425493 5.631416 0.735070
H    -3.233132 3.872889 1.044902
H    -1.085320 -0.097155 -0.892680
H    -4.365442 0.738017 -1.784140
H    -4.229465 -1.474871 -1.862948
H    -4.242171 -3.771315 -2.311059
H    -3.293562 -6.051301 -2.086198
H    -1.067148 -6.376387 -1.012687
H    0.185899 -4.395258 -0.151693
H    -0.761504 -2.130641 -0.369782
H    1.987917 4.889832 2.631473
C    1.776905 3.869379 2.326488
H    3.412631 2.522666 3.032333
H    -1.051764 3.905951 0.489309
C    2.471584 2.716103 2.526136
H    0.044302 5.320496 0.690264
C    -0.405486 4.452115 1.185035
N    0.653302 3.539016 1.598981
H    6.626093 1.249902 -1.132101
H    6.264206 2.216068 -3.408147
C    5.618309 1.286406 -1.549439
C    5.414561 1.834266 -2.840218
N    1.752665 1.708650 1.911061
H    -0.975397 4.771773 2.065429
C    0.653663 2.233423 1.355497
C    4.558957 0.800005 -0.818281
C    4.146514 1.880377 -3.371565
H    2.105138 0.252033 4.068922
H    4.726101 0.379265 0.175587
H    3.976009 2.298338 -4.366436
C    2.107422 0.319654 1.898494
C    2.252139 -0.323323 3.153747
C    3.235217 0.837761 -1.341805
C    3.032059 1.385588 -2.643548
H    -0.134391 1.687468 0.827949
C    2.112712 0.342036 -0.616778
C    1.712962 1.412783 -3.181316
C    2.271173 -0.338695 0.698380
C    2.549324 -1.659325 3.196229
H    1.563161 1.827489 -4.180504
H    2.656759 -2.169811 4.154772
C    0.643907 0.938443 -2.469582
C    0.839204 0.395114 -1.165481
C    2.565145 -1.741985 0.737773
C    2.704270 -2.403141 1.993447
O    -0.166597 -0.061312 -0.426809
H    -0.369042 0.971688 -2.871261
C    2.717124 -2.500313 -0.456755
C    2.993001 -3.795151 2.017224
H    2.601515 -2.000501 -1.419324
H    3.097222 -4.291529 2.984114
C    2.998497 -3.844724 -0.401664
C    3.138776 -4.500588 0.846979
H    3.107789 -4.413959 -1.325895
H    3.361310 -5.568204 0.875122
H    -0.391702 -0.865107 1.766121
C    -3.500630 -1.548574 1.356424
C    -4.557424 -0.810377 0.701798
C    -2.889673 0.670255 1.358610
C    -1.284006 -0.920104 2.406472
C    -4.182056 0.529440 0.605934
N    -2.475673 -0.599863 1.659212
O    -2.293478 1.693869 1.659680
O    -3.407698 -2.720468 1.673033
H    -5.501051 -1.267744 0.417122
H    -1.397432 -1.943989 2.783659
H    -4.848123 1.389629 0.532394
H    -1.167407 -0.222509 3.249184
85
Energy = 0.00 kcal/mol # From:censo_5
O    -1.624347 2.346613 -1.050290
C    -2.783507 2.080030 -1.300639
O    -3.730965 3.021681 -1.492143
C    -3.408137 4.372141 -1.164989
C    -3.783418 4.651102 0.278722
C    -3.382151 0.750424 -1.359268
N    -2.590505 -0.354742 -1.395132
C    -3.213597 -1.497344 -1.511384
C    -2.602399 -2.818408 -1.345280
C    -3.331979 -3.943119 -1.763453
C    -2.825213 -5.229087 -1.595557
C    -1.579482 -5.415543 -0.993687
C    -0.852706 -4.305743 -0.557422
C    -1.358112 -3.019356 -0.723302
H    -2.339080 4.543576 -1.349917
H    -3.984958 4.995978 -1.859362
H    -3.457221 5.658456 0.575919
H    -3.311302 3.906022 0.936279
H    -4.872487 4.585235 0.411049
H    -1.112350 -0.140629 -0.879388
H    -4.367099 0.711095 -1.837096
H    -4.251394 -1.499025 -1.871939
H    -4.310111 -3.800167 -2.229213
H    -3.405343 -6.089934 -1.932557
H    -1.181225 -6.422389 -0.856781
H    0.116922 -4.440069 -0.072460
H    -0.788897 -2.165767 -0.356775
H    1.824194 4.811062 2.812345
C    1.648124 3.798586 2.462413
H    3.293376 2.464680 3.168637
H    -0.064560 5.283458 0.851669
C    2.364413 2.655267 2.639846
H    -1.129118 4.626128 2.143576
C    -0.509893 4.375648 1.274253
N    0.557411 3.471019 1.685602
H    6.581367 1.327225 -1.074416
H    6.214145 2.301838 -3.346649
C    5.575964 1.345134 -1.498708
C    5.369303 1.897512 -2.787367
N    1.691537 1.655585 1.962459
H    -1.109436 3.851622 0.521862
C    0.596858 2.176153 1.392969
C    4.522022 0.829839 -0.779303
C    4.104286 1.917845 -3.328205
H    2.099970 0.186007 4.094470
H    4.690988 0.404636 0.212262
H    3.931650 2.337630 -4.321866
C    2.081251 0.276439 1.924335
C    2.258902 -0.374110 3.171906
C    3.200986 0.843361 -1.311221
C    2.995172 1.394286 -2.611248
H    -0.162858 1.633555 0.822723
C    2.083723 0.322928 -0.593679
C    1.678831 1.395900 -3.157283
C    2.254709 -0.365606 0.716408
C    2.604525 -1.698418 3.199859
H    1.526938 1.808625 -4.157052
H    2.740935 -2.212313 4.152823
C    0.614857 0.900510 -2.452258
C    0.811617 0.360054 -1.146897
C    2.589555 -1.760906 0.741060
C    2.770078 -2.426583 1.989273
O    -0.192983 -0.105676 -0.411559
H    -0.395613 0.913332 -2.861204
C    2.742345 -2.507857 -0.460878
C    3.106871 -3.807863 1.999532
H    2.592474 -2.007480 -1.418428
H    3.244608 -4.305993 2.961202
C    3.065952 -3.843367 -0.418926
C    3.253793 -4.501262 0.822364
H    3.175055 -4.403742 -1.348592
H    3.512380 -5.560989 0.838644
H    -1.251221 -0.130659 3.251287
C    -3.561138 -1.519417 1.360893
C    -4.607900 -0.795533 0.673512
C    -2.957051 0.701733 1.337209
C    -1.368359 -0.867135 2.442556
C    -4.232801 0.542867 0.560552
N    -2.545832 -0.562341 1.667657
O    -2.370835 1.732749 1.632532
O    -3.469668 -2.685395 1.698737
H    -5.544489 -1.260396 0.378463
H    -0.467696 -0.857353 1.810902
H    -4.898337 1.400220 0.455226
H    -1.501617 -1.869510 2.867684
85
Energy = 0.00 kcal/mol # From:censo_11
O    -1.682177 2.579354 -0.794036
C    -2.815240 2.258064 -1.084377
O    -3.826679 3.146191 -1.212252
C    -3.603298 4.482708 -0.769466
C    -4.089807 4.633095 0.660054
C    -3.319819 0.900586 -1.280484
N    -2.453905 -0.143017 -1.315678
C    -2.972231 -1.319096 -1.552831
C    -2.284226 -2.599514 -1.375449
C    -2.930271 -3.766869 -1.814016
C    -2.364689 -5.021948 -1.602870
C    -1.141536 -5.135714 -0.939741
C    -0.494687 -3.982838 -0.488901
C    -1.057486 -2.727479 -0.700549
H    -2.535318 4.718567 -0.862225
H    -4.165769 5.129449 -1.455164
H    -3.838600 5.628708 1.053203
H    -3.625906 3.863769 1.295311
H    -5.180054 4.503427 0.711742
H    -1.005995 0.191139 -0.683571
H    -4.272337 0.828565 -1.816674
H    -3.976730 -1.377016 -1.994468
H    -3.894535 -3.683271 -2.321463
H    -2.883827 -5.916852 -1.950810
H    -0.699969 -6.118545 -0.765895
H    0.456566 -4.058703 0.043030
H    -0.550338 -1.840267 -0.323212
H    2.147933 4.835288 1.045577
C    1.854615 3.818069 1.285160
H    3.659498 2.501595 1.323858
H    -0.601826 5.019852 2.337569
C    2.593792 2.684514 1.425119
H    -1.510387 3.738896 1.439192
C    -0.611282 4.362771 1.459826
N    0.538749 3.467971 1.507156
H    6.738409 0.620993 -1.512714
H    6.316814 1.705579 -3.724999
C    5.712909 0.797451 -1.841848
C    5.475005 1.412656 -3.096070
N    1.709784 1.669689 1.737362
H    -0.557059 4.954847 0.539958
C    0.469811 2.169007 1.769737
C    4.663485 0.420163 -1.036056
C    4.183744 1.637934 -3.513828
H    1.790675 0.260598 4.001978
H    4.856987 -0.054970 -0.071592
H    3.987084 2.111620 -4.478410
C    2.051372 0.278413 1.848107
C    2.036711 -0.334727 3.122019
C    3.316252 0.642110 -1.441806
C    3.078240 1.263846 -2.703687
H    -0.462041 1.622062 1.931486
C    2.205225 0.275111 -0.628668
C    1.733701 1.496618 -3.113170
C    2.353737 -0.402318 0.687274
C    2.325586 -1.672123 3.220351
H    1.555613 1.965106 -4.083643
H    2.311753 -2.168867 4.191931
C    0.675884 1.156310 -2.312250
C    0.906024 0.548397 -1.042516
C    2.671068 -1.794406 0.784470
C    2.649383 -2.431092 2.061498
O    -0.093105 0.237058 -0.221667
H    -0.354245 1.353624 -2.609545
C    2.983066 -2.570196 -0.367651
C    2.947188 -3.819885 2.146170
H    2.982116 -2.088276 -1.346124
H    2.925735 -4.300838 3.126086
C    3.276223 -3.907631 -0.251200
C    3.258356 -4.540047 1.018083
H    3.514053 -4.491330 -1.141626
H    3.488318 -5.603760 1.094515
H    -1.530961 -2.073330 2.666869
C    -3.611163 -1.619752 1.228118
C    -4.639109 -0.865797 0.543274
C    -3.076889 0.609135 1.419102
C    -1.475638 -1.000814 2.442901
C    -4.308485 0.485526 0.575674
N    -2.643038 -0.663166 1.666348
O    -2.529817 1.626854 1.825835
O    -3.504384 -2.804919 1.480233
H    -5.538539 -1.329361 0.147068
H    -1.458369 -0.427270 3.382181
H    -4.987894 1.333153 0.487423
H    -0.555491 -0.799837 1.873908
85
Energy = 0.00 kcal/mol # From:censo_6
O    -1.967605 1.819960 -1.997335
C    -3.174081 1.629938 -1.935027
O    -4.057714 2.592523 -2.221459
C    -3.539073 3.906923 -2.447949
C    -3.260816 4.591858 -1.124762
C    -3.813982 0.398249 -1.492698
N    -2.997438 -0.677775 -1.327941
C    -3.536610 -1.821151 -1.064839
C    -2.728198 -2.972869 -0.649355
C    -3.350532 -4.180807 -0.306667
C    -2.593187 -5.283519 0.086339
C    -1.202770 -5.188697 0.149330
C    -0.575859 -3.978999 -0.168172
C    -1.329497 -2.876564 -0.556719
H    -2.628872 3.834144 -3.057176
H    -4.313697 4.425777 -3.025156
H    -2.543417 3.992840 -0.546682
H    -4.188667 4.688307 -0.542960
H    -2.847871 5.596599 -1.291462
H    -0.881554 0.698844 -1.296164
H    -4.853064 0.265996 -1.821737
H    -4.620257 -1.986406 -1.174824
H    -4.440093 -4.250079 -0.345738
H    -3.089962 -6.220971 0.343909
H    -0.605923 -6.051790 0.450493
H    0.510436 -3.895703 -0.115430
H    -0.852930 -1.922584 -0.792674
H    2.126981 4.233970 3.382085
C    1.851319 3.304330 2.893361
H    3.411440 1.756144 3.293031
H    0.097100 4.965552 1.215876
C    2.478946 2.096341 2.852825
H    -0.518843 4.711431 2.882651
C    -0.297715 4.228357 1.924885
N    0.697979 3.182333 2.148282
H    6.817946 1.174573 -0.315746
H    6.814120 2.873319 -2.148240
C    5.878336 1.443415 -0.800831
C    5.877397 2.406955 -1.839766
N    1.691873 1.266413 2.077436
H    -1.200132 3.750552 1.527204
C    0.621389 1.949850 1.658418
C    4.708440 0.840115 -0.400205
C    4.695317 2.747510 -2.453940
H    1.816060 -0.685358 3.846631
H    4.723307 0.096532 0.398894
H    4.677665 3.488640 -3.256319
C    1.981506 -0.103358 1.761798
C    2.032430 -1.028150 2.834113
C    3.469749 1.169601 -1.020771
C    3.470583 2.143906 -2.061700
H    -0.203146 1.570510 1.046723
C    2.237622 0.558568 -0.634851
C    2.236055 2.484899 -2.681159
C    2.221408 -0.460337 0.451616
C    2.351728 -2.335762 2.578232
H    2.237549 3.236183 -3.473891
H    2.403514 -3.060760 3.392111
C    1.061209 1.892415 -2.300937
C    1.055141 0.908826 -1.267538
C    2.530050 -1.831955 0.176196
C    2.619175 -2.766937 1.249689
O    -0.074210 0.308815 -0.869405
H    0.113480 2.159021 -2.766807
C    2.779780 -2.282063 -1.149741
C    2.980530 -4.113590 0.969272
H    2.698615 -1.570654 -1.973219
H    3.054565 -4.819877 1.798193
C    3.121003 -3.592321 -1.389249
C    3.231450 -4.516758 -0.320169
H    3.310830 -3.925361 -2.409846
H    3.512924 -5.550359 -0.527522
H    -1.564707 -1.672095 2.518809
C    -3.917637 -1.091727 1.679134
C    -4.951116 -0.372713 0.987181
C    -3.017319 0.919994 1.001094
C    -1.459536 -0.651329 2.130311
C    -4.412285 0.803516 0.457241
N    -2.747803 -0.255549 1.626197
O    -2.240327 1.864217 0.893267
O    -3.909194 -2.157132 2.274776
H    -5.966165 -0.747055 0.885110
H    -1.120983 0.013201 2.942705
H    -4.958924 1.712173 0.200061
H    -0.717461 -0.651247 1.317105
85
Energy = 0.00 kcal/mol # From:censo_1
O    -1.916077 1.853226 -1.941207
C    -3.125489 1.698057 -1.836489
O    -3.974437 2.711924 -2.031139
C    -3.394862 3.984361 -2.327611
C    -4.520678 4.972306 -2.519638
C    -3.792950 0.464796 -1.439466
N    -3.001478 -0.631314 -1.326405
C    -3.549130 -1.774897 -1.078194
C    -2.737479 -2.936246 -0.698094
C    -3.356859 -4.141373 -0.340546
C    -2.596316 -5.241523 0.054524
C    -1.204913 -5.148918 0.100591
C    -0.580168 -3.944841 -0.241351
C    -1.336320 -2.845040 -0.631464
H    -2.730531 4.268735 -1.498143
H    -2.773944 3.892516 -3.230566
H    -5.168980 4.661387 -3.350258
H    -4.111374 5.964952 -2.749788
H    -5.130167 5.048029 -1.608683
H    -0.834956 0.719301 -1.275565
H    -4.846550 0.379970 -1.735472
H    -4.637094 -1.926816 -1.161453
H    -4.447058 -4.209358 -0.365237
H    -3.092215 -6.173953 0.330961
H    -0.606830 -6.009387 0.407088
H    0.506803 -3.864599 -0.203574
H    -0.857235 -1.896335 -0.883034
H    2.172866 4.156100 3.510667
C    1.908248 3.239506 2.992608
H    3.450923 1.676398 3.401891
H    -1.065226 3.740711 1.468046
C    2.532220 2.029787 2.943189
H    0.244671 4.974041 1.341484
C    -0.203449 4.195007 1.969103
N    0.777046 3.139629 2.210593
H    6.870201 1.110143 -0.275435
H    6.874688 2.864458 -2.055535
C    5.931575 1.399753 -0.751022
C    5.935660 2.394270 -1.760226
N    1.765097 1.220865 2.126857
H    -0.511784 4.620327 2.930416
C    0.709168 1.917376 1.694244
C    4.757250 0.794867 -0.366196
C    4.755458 2.760346 -2.363677
H    1.898167 -0.749257 3.870641
H    4.768830 0.028467 0.411095
H    4.743329 3.525133 -3.143419
C    2.044799 -0.145721 1.790535
C    2.092727 -1.083972 2.850743
C    3.519557 1.150681 -0.975308
C    3.527134 2.151725 -1.990983
H    -0.105532 1.550011 1.062643
C    2.282409 0.540612 -0.602411
C    2.294954 2.514580 -2.603186
C    2.259885 -0.491657 0.472401
C    2.375255 -2.395318 2.573705
H    2.299274 3.285623 -3.376565
H    2.420549 -3.130669 3.378511
C    1.116921 1.917908 -2.241214
C    1.103661 0.908247 -1.233581
C    2.535738 -1.866138 0.176430
C    2.611451 -2.817431 1.236380
O    -0.032234 0.308154 -0.856622
H    0.170716 2.201962 -2.699975
C    2.761341 -2.305942 -1.157722
C    2.927410 -4.170690 0.933891
H    2.691357 -1.582085 -1.970947
H    2.983908 -4.890243 1.752881
C    3.062348 -3.621888 -1.419315
C    3.152705 -4.563807 -0.363607
H    3.230117 -3.946703 -2.447061
H    3.393681 -5.604037 -0.587093
H    -0.996084 -0.093005 2.937477
C    -3.816870 -1.150095 1.710231
C    -4.867797 -0.401974 1.068828
C    -2.925489 0.873396 1.066281
C    -1.349029 -0.738319 2.115535
C    -4.339598 0.788129 0.573015
N    -2.644178 -0.325719 1.643549
O    -2.146532 1.815107 0.963097
O    -3.805848 -2.230985 2.275183
H    -5.889945 -0.764099 0.997990
H    -0.620400 -0.722014 1.290870
H    -4.885754 1.707298 0.358398
H    -1.451054 -1.767149 2.482994
85
Energy = 0.00 kcal/mol # From:censo_10
O    -1.746437 2.579016 -0.544863
C    -2.876013 2.260258 -0.850593
O    -3.883540 3.152826 -0.965746
C    -3.587955 4.521416 -0.698825
C    -2.816223 5.173600 -1.830285
C    -3.379522 0.907625 -1.087374
N    -2.506682 -0.123740 -1.197635
C    -3.011957 -1.287306 -1.510445
C    -2.299648 -2.564780 -1.446262
C    -2.928171 -3.701200 -1.980977
C    -2.332531 -4.957109 -1.897221
C    -1.097303 -5.104370 -1.263839
C    -0.469731 -3.984482 -0.713370
C    -1.061919 -2.727409 -0.799268
H    -4.565928 4.999580 -0.563538
H    -3.036342 4.588475 0.248241
H    -1.826490 4.710765 -1.938279
H    -2.685220 6.245151 -1.623672
H    -3.364893 5.068148 -2.776837
H    -1.060091 0.185537 -0.554664
H    -4.339689 0.855630 -1.612047
H    -4.023082 -1.328670 -1.938793
H    -3.901221 -3.592105 -2.466259
H    -2.836861 -5.826677 -2.322627
H    -0.631077 -6.088493 -1.191029
H    0.490277 -4.088605 -0.202469
H    -0.570942 -1.867719 -0.344187
H    1.903620 4.838330 1.052939
C    1.671773 3.811133 1.316302
H    3.520051 2.563234 1.181602
H    -1.652800 3.620741 1.868358
C    2.462487 2.706159 1.383043
H    -0.873218 4.810288 0.786402
C    -0.780058 4.269387 1.734141
N    0.397309 3.413694 1.665232
H    6.648022 0.591015 -1.635550
H    6.149775 1.653815 -3.843236
C    5.611842 0.765943 -1.930215
C    5.330848 1.368773 -3.181353
N    1.649869 1.660162 1.776526
H    -0.673270 4.970349 2.570518
C    0.401103 2.113159 1.925775
C    4.591417 0.399192 -1.083127
C    4.025762 1.593415 -3.553695
H    1.853235 0.293437 4.050051
H    4.819654 -0.065368 -0.121286
H    3.795079 2.059758 -4.514325
C    2.050222 0.285859 1.889455
C    2.097266 -0.306652 3.172652
C    3.230488 0.616602 -1.443318
C    2.949599 1.228248 -2.701465
H    -0.490999 1.529656 2.166277
C    2.147836 0.254942 -0.589254
C    1.592342 1.463404 -3.064783
C    2.346058 -0.401652 0.730393
C    2.448468 -1.627673 3.284816
H    1.381570 1.927704 -4.030766
H    2.488157 -2.106509 4.264661
C    0.563144 1.132120 -2.224410
C    0.835836 0.529268 -0.960373
C    2.719199 -1.779203 0.840802
C    2.769113 -2.391892 2.128896
O    -0.138554 0.222514 -0.109546
H    -0.476242 1.333139 -2.484922
C    3.018679 -2.565520 -0.307572
C    3.129842 -3.764500 2.228520
H    2.961135 -2.103959 -1.294144
H    3.165376 -4.225810 3.217408
C    3.369493 -3.887805 -0.177088
C    3.427207 -4.494558 1.103436
H    3.596736 -4.479034 -1.065350
H    3.705027 -5.545970 1.190936
H    -1.443914 -0.727029 3.465809
C    -3.594564 -1.770484 1.252502
C    -4.650569 -0.985873 0.647308
C    -3.087989 0.447854 1.588400
C    -1.449216 -1.206169 2.474772
C    -4.335365 0.363159 0.763437
N    -2.631279 -0.832908 1.737470
O    -2.548175 1.442386 2.054640
O    -3.466111 -2.969508 1.413129
H    -5.550843 -1.435032 0.236575
H    -0.539348 -0.921094 1.925371
H    -5.024406 1.206893 0.741500
H    -1.470944 -2.296517 2.593173
85
Energy = 0.00 kcal/mol # From:censo_7
O    -1.995505 1.883842 -1.869791
C    -3.202599 1.722505 -1.749980
O    -4.066633 2.730242 -1.922120
C    -3.521353 4.010961 -2.250705
C    -3.203968 4.113314 -3.729613
C    -3.857610 0.483626 -1.351338
N    -3.061680 -0.611275 -1.261403
C    -3.603760 -1.757425 -1.013159
C    -2.781836 -2.921328 -0.665751
C    -3.389953 -4.130528 -0.303452
C    -2.617551 -5.233900 0.057818
C    -1.225496 -5.140707 0.063976
C    -0.611451 -3.932935 -0.284328
C    -1.379377 -2.829728 -0.640309
H    -4.295789 4.731106 -1.960155
H    -2.624738 4.180573 -1.639355
H    -2.852095 5.126700 -3.967717
H    -4.101167 3.906353 -4.329322
H    -2.418479 3.397220 -4.005466
H    -0.885848 0.755543 -1.232526
H    -4.916322 0.398622 -1.627983
H    -4.692730 -1.909760 -1.076968
H    -4.480292 -4.199387 -0.297676
H    -3.104552 -6.169531 0.339244
H    -0.618323 -6.003450 0.345019
H    0.476358 -3.852203 -0.278396
H    -0.908176 -1.878418 -0.897012
H    2.152396 4.085164 3.634845
C    1.889774 3.183233 3.090912
H    3.435856 1.612214 3.454607
H    -1.086377 3.722982 1.582633
C    2.516433 1.976843 3.006416
H    0.222510 4.959987 1.485711
C    -0.223923 4.164593 2.093705
N    0.758457 3.104244 2.306094
H    6.818549 1.222910 -0.248311
H    6.792585 3.026460 -1.979120
C    5.874821 1.511429 -0.714291
C    5.861785 2.533455 -1.695517
N    1.750784 1.190751 2.166694
H    -0.530197 4.564914 3.066343
C    0.693105 1.897221 1.754962
C    4.710957 0.877296 -0.344468
C    4.674172 2.898003 -2.285242
H    1.921339 -0.823458 3.854600
H    4.737400 0.088703 0.409966
H    4.647948 3.685066 -3.042153
C    2.034065 -0.164084 1.789693
C    2.104951 -1.129637 2.823813
C    3.465993 1.230175 -0.941024
C    3.456168 2.260830 -1.926695
H    -0.122919 1.544685 1.116629
C    2.238291 0.590863 -0.584633
C    2.217564 2.623345 -2.526053
C    2.233581 -0.472636 0.459869
C    2.394173 -2.430863 2.508581
H    2.209310 3.417118 -3.276078
H    2.456398 -3.186914 3.292832
C    1.048962 2.000327 -2.178385
C    1.052079 0.962505 -1.199657
C    2.515792 -1.836818 0.123644
C    2.613106 -2.815623 1.156988
O    -0.075384 0.340070 -0.833848
H    0.096758 2.284019 -2.625448
C    2.728311 -2.238656 -1.224560
C    2.933288 -4.158286 0.814095
H    2.643339 -1.493548 -2.016906
H    3.006224 -4.899276 1.612474
C    3.035258 -3.544882 -1.525072
C    3.144386 -4.514408 -0.496482
H    3.193622 -3.840529 -2.563014
H    3.389819 -5.546387 -0.751329
H    -1.451210 -1.801397 2.493874
C    -3.830363 -1.166133 1.775986
C    -4.889550 -0.407712 1.162001
C    -2.944042 0.862740 1.142413
C    -1.353510 -0.766928 2.141085
C    -4.366683 0.787346 0.672383
N    -2.656558 -0.343648 1.701175
O    -2.164606 1.803767 1.037483
O    -3.813716 -2.254304 2.326780
H    -5.914335 -0.765254 1.106225
H    -0.982968 -0.135954 2.966550
H    -4.913570 1.711065 0.480466
H    -0.640930 -0.738453 1.302667
85
Energy = 0.00 kcal/mol # From:censo_12
O    -1.760143 1.173082 -2.300871
C    -2.964253 1.310952 -2.140877
O    -3.575246 2.460321 -2.445898
C    -2.745833 3.523680 -2.918035
C    -3.636332 4.709985 -3.203177
C    -3.883296 0.326181 -1.574831
N    -3.382913 -0.923194 -1.379378
C    -4.208000 -1.845441 -1.010422
C    -3.745271 -3.170712 -0.582611
C    -4.675260 -4.132441 -0.165680
C    -4.254677 -5.394803 0.250104
C    -2.895341 -5.709905 0.259888
C    -1.958800 -4.751081 -0.141284
C    -2.377477 -3.489990 -0.554779
H    -1.989237 3.747059 -2.150656
H    -2.213646 3.188405 -3.820895
H    -3.036680 5.546520 -3.585847
H    -4.151550 5.036580 -2.289648
H    -4.392728 4.449566 -3.956153
H    -0.553478 0.410976 -1.370072
H    -4.934769 0.470153 -1.857734
H    -5.298594 -1.693569 -1.052967
H    -5.739088 -3.882681 -0.170205
H    -4.990520 -6.136927 0.565711
H    -2.564925 -6.700243 0.578595
H    -0.894553 -4.995601 -0.133355
H    -1.659805 -2.729142 -0.867966
H    1.953547 4.020072 3.791284
C    1.791201 3.113964 3.215931
H    3.413537 1.645254 3.659153
H    -1.061190 3.526794 1.447398
C    2.502569 1.954783 3.156067
H    0.155848 4.846804 1.594469
C    -0.300628 3.982478 2.090651
N    0.726573 2.976567 2.350924
H    6.859277 2.076795 0.268402
H    6.682057 3.891466 -1.441259
C    5.926748 2.210111 -0.282669
C    5.827558 3.240722 -1.249650
N    1.852314 1.136155 2.252787
H    -0.747227 4.290715 3.042517
C    0.781089 1.778913 1.776914
C    4.861907 1.375309 -0.032334
C    4.651960 3.414707 -1.941167
H    2.166316 -0.913952 3.882735
H    4.957401 0.582282 0.711966
H    4.558805 4.205443 -2.688591
C    2.290752 -0.168049 1.848094
C    2.436953 -1.154861 2.853681
C    3.630849 1.531825 -0.733090
C    3.531220 2.576113 -1.698891
H    0.039369 1.391455 1.069802
C    2.500122 0.691658 -0.490386
C    2.299743 2.755057 -2.389048
C    2.594617 -0.397500 0.521762
C    2.914605 -2.392573 2.512447
H    2.223527 3.556306 -3.127554
H    3.039137 -3.163014 3.275026
C    1.220710 1.949415 -2.139518
C    1.314938 0.895962 -1.181956
C    3.088018 -1.692031 0.159603
C    3.256786 -2.690019 1.164181
O    0.267631 0.106369 -0.907777
H    0.269951 2.089748 -2.653962
C    3.449000 -2.000497 -1.181561
C    3.778960 -3.960883 0.798663
H    3.319838 -1.239481 -1.952418
H    3.904819 -4.717397 1.574940
C    3.956459 -3.237140 -1.501847
C    4.124237 -4.229050 -0.503388
H    4.233548 -3.460487 -2.532666
H    4.529149 -5.205946 -0.773079
H    -0.700546 -0.843262 1.093513
C    -3.966461 -0.897523 1.700811
C    -4.927861 -0.051748 1.044907
C    -2.810723 0.868477 0.780178
C    -1.439126 -0.873339 1.908206
C    -4.248596 0.966521 0.370147
N    -2.682639 -0.298942 1.464732
O    -1.902038 1.657610 0.535727
O    -4.080930 -1.903285 2.382442
H    -5.998371 -0.232007 1.087158
H    -1.641859 -1.916063 2.182576
H    -4.652018 1.939102 0.085630
H    -1.035356 -0.347769 2.790312
