85
Energy = 4.4 kcal/mol # From:censo_3
O    -0.706239 0.621573 -1.052971
C    -1.457181 -0.060823 -1.735003
O    -1.562554 0.123227 -3.056471
C    -0.718026 1.121558 -3.636157
C    -0.869881 1.046261 -5.136658
C    -2.361916 -1.082029 -1.236449
N    -2.111194 -1.633374 -0.019917
C    -2.803150 -2.661476 0.345981
C    -2.731263 -3.180345 1.716459
C    -3.739298 -4.030457 2.193688
C    -3.714242 -4.492639 3.509699
C    -2.678966 -4.119920 4.366764
C    -1.664064 -3.277754 3.899211
C    -1.692280 -2.810631 2.589997
H    -1.006818 2.107964 -3.241710
H    0.321197 0.930592 -3.327476
H    -0.234890 1.806361 -5.611607
H    -1.912189 1.224938 -5.434846
H    -0.561654 0.057019 -5.502845
H    0.371134 1.821523 -0.605316
H    -2.865940 -1.666726 -2.015859
H    -3.484951 -3.174813 -0.351152
H    -4.562971 -4.303349 1.531322
H    -4.511989 -5.144827 3.869392
H    -2.658775 -4.484431 5.395108
H    -0.846924 -2.987679 4.562726
H    -0.910116 -2.145448 2.218885
H    1.446212 0.544833 4.649641
C    1.194485 0.333904 3.614845
H    2.883419 -0.756785 2.639842
H    -1.835177 1.704833 2.981737
C    1.896018 -0.304668 2.637451
H    -0.623788 2.438483 4.090881
C    -1.051493 1.499484 3.721113
N    -0.004366 0.729395 3.056029
H    6.982494 -0.613036 0.456209
H    7.970641 1.457025 1.450165
C    6.358883 0.271758 0.594272
C    6.919941 1.443124 1.157491
N    1.103002 -0.288771 1.507963
H    -1.458531 0.920787 4.558722
C    -0.045010 0.343180 1.785234
C    5.035198 0.236215 0.217377
C    6.133905 2.558057 1.333776
H    0.339023 -2.562021 0.362063
H    4.619458 -0.674725 -0.217068
H    6.550513 3.469563 1.768301
C    1.462039 -0.717674 0.181793
C    0.919626 -1.927220 -0.305397
C    4.198409 1.376778 0.381175
C    4.766089 2.552761 0.953043
H    -0.859416 0.519581 1.074543
C    2.819086 1.370750 -0.009659
C    3.938664 3.699255 1.126570
C    2.226042 0.131796 -0.591202
C    1.085562 -2.246960 -1.627111
H    4.370477 4.600627 1.566491
H    0.650365 -3.162629 -2.031201
C    2.626616 3.679776 0.745681
C    2.049821 2.511091 0.166238
C    2.401323 -0.194677 -1.973462
C    1.795015 -1.375086 -2.497567
O    0.756862 2.614002 -0.168443
H    1.981455 4.550844 0.867118
C    3.108230 0.666735 -2.859101
C    1.898745 -1.647178 -3.889530
H    3.573607 1.569285 -2.459630
H    1.426629 -2.549929 -4.282133
C    3.185881 0.378850 -4.201340
C    2.572163 -0.787686 -4.723686
H    3.720757 1.053263 -4.871494
H    2.638855 -1.001256 -5.791507
H    -4.221512 0.821101 3.337654
C    -5.225077 -1.145495 0.906894
C    -5.135362 -0.927890 -0.513753
C    -3.676023 0.529361 0.573198
C    -4.045011 -0.183394 2.925015
C    -4.147486 0.014143 -0.768871
N    -4.316028 -0.221258 1.513708
O    -2.865136 1.411390 0.814348
O    -5.929207 -1.885464 1.574463
H    -5.758259 -1.456423 -1.230600
H    -3.006871 -0.486216 3.130082
H    -4.070280 0.648883 -1.652099
H    -4.720058 -0.903529 3.404308
