85
Energy = 0.00 kcal/mol
O    0.875445 -2.471713 -0.821684
C    2.060480 -2.684225 -0.994440
O    2.503125 -3.668144 -1.788991
C    1.504141 -4.442813 -2.452812
C    2.185450 -5.583721 -3.171867
C    3.161511 -1.903758 -0.420849
N    2.819613 -0.952816 0.494208
C    3.800167 -0.357972 1.093315
C    3.603905 0.817993 1.947375
C    2.398222 1.538801 1.930599
C    2.227745 2.643550 2.758764
C    3.261200 3.060247 3.604491
C    4.474076 2.370345 3.603056
C    4.644678 1.260527 2.777195
H    0.779063 -4.803334 -1.708165
H    0.964438 -3.785527 -3.150399
H    1.429683 -6.217826 -3.654734
H    2.756717 -6.200682 -2.464487
H    2.871167 -5.209648 -3.944194
H    0.167438 -0.361027 -2.335058
H    4.105347 -2.456460 -0.312235
H    4.820913 -0.770666 1.059463
H    1.616904 1.224726 1.234348
H    1.293632 3.207471 2.737940
H    3.124489 3.929018 4.250796
H    5.290849 2.700232 4.248365
H    5.595725 0.721679 2.775237
H    -0.510396 -1.585205 4.556549
C    -0.589437 -1.062177 3.608523
H    -1.993964 0.657583 3.817317
H    1.960948 -2.335319 2.861646
C    -1.312028 0.032378 3.250265
H    1.116670 -2.905554 1.385390
C    0.993707 -2.623119 2.432984
N    0.083274 -1.484886 2.482534
H    -6.075601 -1.459673 2.164558
H    -6.233372 -3.753984 1.182361
C    -5.379182 -1.760346 1.379293
C    -5.471653 -3.060755 0.822764
N    -1.062801 0.251910 1.908929
H    0.546697 -3.446289 3.000774
C    -0.208896 -0.680374 1.464124
C    -4.422801 -0.873778 0.938972
C    -4.598068 -3.442291 -0.169435
H    -0.977117 2.792187 2.579175
H    -4.365524 0.127993 1.372132
H    -4.659940 -4.441006 -0.609410
C    -1.646951 1.309638 1.138776
C    -1.515268 2.628605 1.644882
C    -3.496850 -1.246415 -0.076418
C    -3.592539 -2.555583 -0.637863
H    0.221973 -0.767228 0.462149
C    -2.468713 -0.370484 -0.536754
C    -2.667334 -2.944546 -1.648790
C    -2.328407 1.022085 -0.024871
C    -2.067234 3.674556 0.955125
H    -2.754003 -3.943766 -2.081246
H    -1.968547 4.694835 1.330747
C    -1.677662 -2.097297 -2.065230
C    -1.563593 -0.799119 -1.493793
C    -2.896648 2.115951 -0.756497
C    -2.766020 3.447298 -0.261714
O    -0.595849 0.048269 -1.843342
H    -0.943227 -2.399182 -2.811426
C    -3.596959 1.906172 -1.977213
C    -3.341241 4.521999 -0.993730
H    -3.696337 0.890373 -2.361474
H    -3.239711 5.536201 -0.601764
C    -4.135123 2.965499 -2.667405
C    -4.009122 4.287449 -2.171468
H    -4.661743 2.789078 -3.606971
H    -4.443367 5.118753 -2.728418
H    1.122132 2.131335 -2.787121
C    3.951572 1.395409 -1.241146
C    4.726449 0.205041 -1.436000
C    2.594060 -0.132999 -2.302174
C    1.574686 2.090575 -1.786195
C    3.896123 -0.791852 -1.972148
N    2.630559 1.105859 -1.753930
O    1.653059 -0.631421 -2.926819
O    4.221801 2.498745 -0.797244
H    5.780974 0.138851 -1.184119
H    2.026203 3.057763 -1.534179
H    4.216080 -1.639638 -2.579797
H    0.780040 1.854403 -1.065024
