          85
 
O       0.8902830     -2.4732020     -0.8126716
C       2.0691733     -2.6762952     -1.0132864
O       2.5054627     -3.6665587     -1.7929686
C       1.5036993     -4.4459066     -2.4519230
C       2.1853382     -5.5850569     -3.1721484
C       3.1948475     -1.8524959     -0.4914240
N       2.8181245     -0.9440466      0.4886390
C       3.7941129     -0.3601690      1.0921971
C       3.6013002      0.8168179      1.9519735
C       2.3974246      1.5379498      1.9311826
C       2.2274721      2.6436649      2.7582677
C       3.2619776      3.0588071      3.6033515
C       4.4745913      2.3689342      3.6031243
C       4.6437348      1.2574209      2.7783762
H       0.7836059     -4.8056906     -1.7025346
H       0.9624124     -3.7874163     -3.1468017
H       1.4289982     -6.2193258     -3.6537236
H       2.7580780     -6.2018586     -2.4659389
H       2.8689469     -5.2095579     -3.9455071
H       0.1675176     -0.3533747     -2.3444547
H       4.0967935     -2.4661802     -0.3001747
H       4.8188958     -0.7620704      1.0474121
H       1.6180795      1.2242150      1.2327133
H       1.2947222      3.2095504      2.7366572
H       3.1262570      3.9285223      4.2486874
H       5.2916773      2.6998619      4.2472666
H       5.5945719      0.7183157      2.7750518
H      -0.5110733     -1.5856881      4.5563879
C      -0.5897702     -1.0623777      3.6084826
H      -1.9947263      0.6570279      3.8172057
H       1.9600218     -2.3357664      2.8667449
C      -1.3124321      0.0321360      3.2502277
H       1.1204470     -2.9060116      1.3885036
C       0.9940283     -2.6229697      2.4351646
N       0.0835603     -1.4847163      2.4826694
H      -6.0754820     -1.4595690      2.1642220
H      -6.2332764     -3.7539384      1.1820833
C      -5.3789595     -1.7602973      1.3790689
C      -5.4714714     -3.0607809      0.8225484
N      -1.0627867      0.2520607      1.9091199
H       0.5453116     -3.4462838      3.0013857
C      -0.2084173     -0.6796960      1.4644667
C      -4.4225426     -0.8737692      0.9388731
C      -4.5978650     -3.4423379     -0.1695747
H      -0.9774910      2.7923712      2.5794058
H      -4.3653732      0.1280220      1.3719830
H      -4.6598025     -4.4410255     -0.6095980
C      -1.6469816      1.3097944      1.1387790
C      -1.5153479      2.6287012      1.6449562
C      -3.4963320     -1.2464368     -0.0764595
C      -3.5921585     -2.5556405     -0.6379141
H       0.2242998     -0.7627586      0.4632677
C      -2.4682714     -0.3705527     -0.5367789
C      -2.6667651     -2.9444916     -1.6486441
C      -2.3283191      1.0220770     -0.0248850
C      -2.0672618      3.6746055      0.9551123
H      -2.7536038     -3.9435407     -2.0814862
H      -1.9685829      4.6948990      1.3306791
C      -1.6769427     -2.0970781     -2.0651882
C      -1.5625796     -0.7986100     -1.4941729
C      -2.8966427      2.1159113     -0.7564917
C      -2.7660224      3.4472665     -0.2617177
O      -0.5956703      0.0492017     -1.8430840
H      -0.9437379     -2.3985538     -2.8129413
C      -3.5969205      1.9061183     -1.9772044
C      -3.3412357      4.5219699     -0.9937203
H      -3.6962458      0.8903365     -2.3615270
H      -3.2396444      5.5361752     -0.6017929
C      -4.1350977      2.9654521     -2.6673842
C      -4.0091131      4.2874015     -2.1714528
H      -4.6616529      2.7890419     -3.6069849
H      -4.4433105      5.1187014     -2.7284401
H       1.1260596      2.1407323     -2.7912363
C       3.9681003      1.3873102     -1.2422863
C       4.7194179      0.2023517     -1.4184190
C       2.5803527     -0.1334612     -2.2917368
C       1.5796975      2.0924315     -1.7908826
C       3.8510516     -0.8390252     -1.8957683
N       2.6298202      1.1023371     -1.7612825
O       1.6437612     -0.6334190     -2.9266692
O       4.2225393      2.5026340     -0.8033296
H       5.7717135      0.1205383     -1.1617910
H       2.0374640      3.0553442     -1.5335023
H       4.1871809     -1.6265036     -2.5852992
H       0.7835330      1.8570069     -1.0706534
