85
Energy = 0.00 kcal/mol
O    0.730372 -2.801904 -0.143135
C    1.903542 -3.089128 -0.305189
O    2.294722 -4.296041 -0.748650
C    1.267798 -5.222001 -1.113858
C    0.829535 -5.000160 -2.547865
C    3.035894 -2.192927 -0.091835
N    2.769078 -0.966480 0.424873
C    3.780028 -0.215134 0.725822
C    3.636684 1.210057 1.038733
C    2.482496 1.925522 0.677372
C    2.407942 3.297734 0.899013
C    3.471748 3.977740 1.498335
C    4.622036 3.275435 1.860208
C    4.706328 1.905589 1.620431
H    1.711699 -6.216035 -0.976621
H    0.423609 -5.109122 -0.420125
H    1.668314 -5.168872 -3.237887
H    0.485483 -3.965606 -2.680717
H    0.017948 -5.694450 -2.807654
H    -0.175666 -1.337098 -1.745493
H    3.998473 -2.684335 0.103036
H    4.796400 -0.634228 0.805738
H    1.671868 1.391333 0.175054
H    1.525117 3.851400 0.575168
H    3.409399 5.054225 1.666108
H    5.462296 3.799960 2.318689
H    5.616341 1.360425 1.882988
H    0.409487 -0.274822 4.974546
C    0.144778 -0.057538 3.944494
H    -1.115399 1.782026 3.867816
H    1.183968 -2.695304 2.162940
C    -0.596210 0.947659 3.406452
H    1.100613 -2.573661 3.953282
C    1.377877 -2.056134 3.028745
N    0.545697 -0.864694 2.901435
H    -5.984292 -0.031708 3.254875
H    -6.509925 -2.470709 3.110051
C    -5.399791 -0.671904 2.591979
C    -5.699037 -2.054416 2.510762
N    -0.632168 0.726799 2.042074
H    2.434938 -1.766329 3.051937
C    0.076096 -0.374602 1.758022
C    -4.382271 -0.129068 1.841236
C    -4.967751 -2.865168 1.674361
H    -0.309384 3.320038 1.897151
H    -4.161834 0.938347 1.907693
H    -5.190142 -3.932114 1.600933
C    -1.304060 1.567155 1.097043
C    -1.018384 2.954261 1.153852
C    -3.605593 -0.945067 0.970403
C    -3.909221 -2.336410 0.888403
H    0.294325 -0.787391 0.768570
C    -2.535386 -0.421509 0.184372
C    -3.138764 -3.159459 0.017945
C    -2.202675 1.030568 0.198617
C    -1.618789 3.807165 0.266843
H    -3.377773 -4.223007 -0.045907
H    -1.398058 4.875641 0.294406
C    -2.110246 -2.642548 -0.722699
C    -1.800350 -1.256322 -0.639455
C    -2.828598 1.917044 -0.738040
C    -2.528018 3.310718 -0.707372
O    -0.802578 -0.699954 -1.337112
H    -1.500284 -3.274428 -1.368347
C    -3.751284 1.436751 -1.709021
C    -3.147630 4.176396 -1.649526
H    -3.985571 0.371768 -1.735411
H    -2.906402 5.240687 -1.619500
C    -4.335549 2.298632 -2.606272
C    -4.030015 3.682367 -2.579420
H    -5.038137 1.915934 -3.347816
H    -4.498714 4.353551 -3.300475
H    1.092392 1.161076 -3.642918
C    3.848143 0.618317 -2.083839
C    4.556559 -0.629558 -1.936739
C    2.327950 -1.074394 -2.416440
C    1.442559 1.242754 -2.602750
C    3.645898 -1.679351 -2.040802
N    2.476312 0.274105 -2.328801
O    1.293280 -1.658832 -2.729634
O    4.219617 1.778268 -2.069474
H    5.631435 -0.681620 -1.788153
H    1.881627 2.234926 -2.441622
H    3.858266 -2.708431 -2.331452
H    0.583588 1.097115 -1.932889
