85
Energy = 0.00 kcal/mol
O    -1.746437 2.579016 -0.544863
C    -2.876013 2.260258 -0.850593
O    -3.883540 3.152826 -0.965746
C    -3.587955 4.521416 -0.698825
C    -2.816223 5.173600 -1.830285
C    -3.379522 0.907625 -1.087374
N    -2.506682 -0.123740 -1.197635
C    -3.011957 -1.287306 -1.510445
C    -2.299648 -2.564780 -1.446262
C    -2.928171 -3.701200 -1.980977
C    -2.332531 -4.957109 -1.897221
C    -1.097303 -5.104370 -1.263839
C    -0.469731 -3.984482 -0.713370
C    -1.061919 -2.727409 -0.799268
H    -4.565928 4.999580 -0.563538
H    -3.036342 4.588475 0.248241
H    -1.826490 4.710765 -1.938279
H    -2.685220 6.245151 -1.623672
H    -3.364893 5.068148 -2.776837
H    -1.060091 0.185537 -0.554664
H    -4.339689 0.855630 -1.612047
H    -4.023082 -1.328670 -1.938793
H    -3.901221 -3.592105 -2.466259
H    -2.836861 -5.826677 -2.322627
H    -0.631077 -6.088493 -1.191029
H    0.490277 -4.088605 -0.202469
H    -0.570942 -1.867719 -0.344187
H    1.903620 4.838330 1.052939
C    1.671773 3.811133 1.316302
H    3.520051 2.563234 1.181602
H    -1.652800 3.620741 1.868358
C    2.462487 2.706159 1.383043
H    -0.873218 4.810288 0.786402
C    -0.780058 4.269387 1.734141
N    0.397309 3.413694 1.665232
H    6.648022 0.591015 -1.635550
H    6.149775 1.653815 -3.843236
C    5.611842 0.765943 -1.930215
C    5.330848 1.368773 -3.181353
N    1.649869 1.660162 1.776526
H    -0.673270 4.970349 2.570518
C    0.401103 2.113159 1.925775
C    4.591417 0.399192 -1.083127
C    4.025762 1.593415 -3.553695
H    1.853235 0.293437 4.050051
H    4.819654 -0.065368 -0.121286
H    3.795079 2.059758 -4.514325
C    2.050222 0.285859 1.889455
C    2.097266 -0.306652 3.172652
C    3.230488 0.616602 -1.443318
C    2.949599 1.228248 -2.701465
H    -0.490999 1.529656 2.166277
C    2.147836 0.254942 -0.589254
C    1.592342 1.463404 -3.064783
C    2.346058 -0.401652 0.730393
C    2.448468 -1.627673 3.284816
H    1.381570 1.927704 -4.030766
H    2.488157 -2.106509 4.264661
C    0.563144 1.132120 -2.224410
C    0.835836 0.529268 -0.960373
C    2.719199 -1.779203 0.840802
C    2.769113 -2.391892 2.128896
O    -0.138554 0.222514 -0.109546
H    -0.476242 1.333139 -2.484922
C    3.018679 -2.565520 -0.307572
C    3.129842 -3.764500 2.228520
H    2.961135 -2.103959 -1.294144
H    3.165376 -4.225810 3.217408
C    3.369493 -3.887805 -0.177088
C    3.427207 -4.494558 1.103436
H    3.596736 -4.479034 -1.065350
H    3.705027 -5.545970 1.190936
H    -1.443914 -0.727029 3.465809
C    -3.594564 -1.770484 1.252502
C    -4.650569 -0.985873 0.647308
C    -3.087989 0.447854 1.588400
C    -1.449216 -1.206169 2.474772
C    -4.335365 0.363159 0.763437
N    -2.631279 -0.832908 1.737470
O    -2.548175 1.442386 2.054640
O    -3.466111 -2.969508 1.413129
H    -5.550843 -1.435032 0.236575
H    -0.539348 -0.921094 1.925371
H    -5.024406 1.206893 0.741500
H    -1.470944 -2.296517 2.593173
