85
CONF23
O 0.3464861264 2.1600184171 0.6430902092
C 0.9259484731 2.5381876788 -0.3747156482
O 1.0122631545 3.8449781779 -0.7195686311
C 0.4437397501 4.8065502182 0.2067110255
C 1.4177980003 5.1381412947 1.3164487181
C 1.6300400803 1.6943020966 -1.3325951182
N 1.4242306053 0.3497016648 -1.2186072394
C 1.8892895819 -0.3970298658 -2.1768751821
C 1.8816710822 -1.8492490448 -2.0856061617
C 1.5883526390 -2.5084976787 -0.8791781718
C 1.5783667071 -3.8949601306 -0.8175134709
C 1.8715268397 -4.6559283201 -1.9516731123
C 2.1816722810 -4.0126911241 -3.1489979644
C 2.1886784969 -2.6235279701 -3.2151212385
H 0.2274686469 5.6824370196 -0.4108675531
H -0.4963995370 4.4093745501 0.6009902235
H 0.9694899555 5.8831734262 1.9830325005
H 2.3437055175 5.5552459030 0.9081638888
H 1.6651146254 4.2439297480 1.8940995800
H 0.0649479425 0.4175385252 1.0065787872
H 1.7622921706 2.1433889943 -2.3232441219
H 2.2228003298 0.0305889707 -3.1316343499
H 1.3776088158 -1.9107806443 0.0014583190
H 1.3499161035 -4.3906444371 0.1220706330
H 1.8669206427 -5.7403698764 -1.8987688970
H 2.4189975093 -4.5963558038 -4.0337360542
H 2.4315250021 -2.1239393947 -4.1499065973
H -3.8170349623 0.3348410342 4.8074732803
C -3.3405172216 0.7284309549 3.9236619775
H -4.3024860454 -0.1247207968 2.1081563504
H -1.2704614801 1.2997893281 5.7928397050
C -3.5788639756 0.5016830064 2.6049003697
H -2.4686160929 2.6264003910 5.8357937921
C -1.6998611721 2.1352790139 5.2353070709
N -2.2987593893 1.6340642361 3.9989512981
H -5.8494807758 -2.8943356269 -1.3154504386
H -5.5037576161 -5.0639557025 -0.1458365021
C -4.9811226214 -3.0297066097 -0.6775315052
C -4.7897488878 -4.2573767836 -0.0125761968
N -2.6768013752 1.2761276676 1.8969458829
H -0.9162191735 2.8489980780 4.9812028085
C -1.9098492697 1.9530895350 2.7653473363
C -4.0810244837 -1.9984775331 -0.5270381828
C -3.7005632435 -4.4210546925 0.8115857112
H -3.0137074326 3.4484687752 0.4678601578
H -4.2486939376 -1.0610282743 -1.0467309153
H -3.5439475728 -5.3561942803 1.3428862668
C -2.5303704707 1.3458315824 0.4704487297
C -2.7195055228 2.5992629602 -0.1398499734
C -2.9350858586 -2.1410022314 0.2966160596
C -2.7630022429 -3.3785471055 0.9944804089
H -1.0896207235 2.6008870583 2.4906195905
C -1.9861349417 -1.0865674790 0.4739794372
C -1.6590022478 -3.5201481532 1.8709425094
C -2.1735228356 0.2076238777 -0.2273745591
C -2.5298047411 2.7223704124 -1.4905246304
H -1.5249535021 -4.4590875584 2.4009648014
H -2.6652430855 3.6832629838 -1.9778642472
C -0.7722734912 -2.4965658587 2.0499403520
C -0.9223947988 -1.2694908920 1.3530452464
C -1.9858151941 0.3277449697 -1.6385249482
C -2.1553047266 1.6019690797 -2.2690786782
O 0.0135463954 -0.3460461686 1.6347751258
H 0.0792017405 -2.5981122637 2.7157355616
C -1.6021058683 -0.7775480991 -2.4355102052
C -1.9375545681 1.7163368043 -3.6636524838
H -1.4460075963 -1.7409422261 -1.9629424153
H -2.0652464601 2.6884855198 -4.1314667954
C -1.4045513593 -0.6340832694 -3.7875765693
C -1.5707100567 0.6217462023 -4.4084167701
H -1.1023105869 -1.4911818872 -4.3813967200
H -1.4047868175 0.7201525822 -5.4766835890
H 5.0882310521 -0.4074053778 2.2569345788
C 4.6057553079 -0.1993344423 -0.8329449239
C 4.3301604266 0.9512288881 -1.6379984231
C 3.6144481634 1.3852332352 0.5315614708
C 4.2626349907 -0.7598673015 1.6243531521
C 3.6169323042 1.8922519393 -0.8809261443
N 4.0705020934 0.0894426545 0.4717271355
O 3.2926252451 1.9830887891 1.5533647519
O 5.2115058380 -1.2452266006 -1.0718134581
H 4.6375400402 1.0302668546 -2.6715339891
H 4.4986131057 -1.7657280264 1.2685251042
H 3.6438206721 2.9657254020 -1.0368870554
H 3.3517640192 -0.7927024917 2.2294485188
