85
Energy = 0.00 kcal/mol
O    -1.889981 2.423269 -0.796446
C    -3.080335 2.167949 -0.910591
O    -4.019832 3.124895 -0.907956
C    -3.598854 4.485210 -0.786204
C    -3.186317 5.064390 -2.125175
C    -3.668381 0.831764 -0.996847
N    -2.806926 -0.206869 -1.142046
C    -3.314472 -1.374342 -1.371129
C    -2.509958 -2.597485 -1.312822
C    -3.118787 -3.840500 -1.533756
C    -2.377291 -5.018292 -1.461329
C    -1.015961 -4.966110 -1.158193
C    -0.404556 -3.731944 -0.911497
C    -1.143471 -2.555396 -0.986618
H    -4.468888 5.016338 -0.380074
H    -2.776073 4.540993 -0.061323
H    -2.304114 4.540070 -2.515656
H    -2.935785 6.128128 -2.009488
H    -4.007272 4.979988 -2.850518
H    -0.823712 1.015938 -0.556080
H    -4.662811 0.797472 -1.461073
H    -4.368528 -1.491872 -1.669338
H    -4.187400 -3.880607 -1.758178
H    -2.866823 -5.980773 -1.628381
H    -0.434503 -5.887609 -1.099709
H    0.655141 -3.689408 -0.648149
H    -0.682740 -1.585787 -0.787690
H    1.923378 4.798590 1.309941
C    1.695452 3.759409 1.527635
H    3.506106 2.508502 1.158627
H    -1.608309 3.591152 2.133892
C    2.471387 2.644473 1.457771
H    -0.729867 4.989667 1.421923
C    -0.707300 4.212604 2.192976
N    0.445943 3.352164 1.950775
H    6.859700 0.371937 -1.491687
H    6.556455 1.610295 -3.643534
C    5.858042 0.663936 -1.811501
C    5.687674 1.368949 -3.029515
N    1.679527 1.580888 1.846721
H    -0.617334 4.677826 3.182773
C    0.454660 2.036249 2.126898
C    4.774732 0.340463 -1.026812
C    4.427571 1.750678 -3.426393
H    1.791408 0.015716 3.985458
H    4.919111 -0.203567 -0.090671
H    4.279433 2.303039 -4.357934
C    2.063087 0.197096 1.838892
C    2.068438 -0.504330 3.067601
C    3.454539 0.705833 -1.420519
C    3.290119 1.439728 -2.633281
H    -0.427321 1.446236 2.384186
C    2.304317 0.383401 -0.633887
C    1.983046 1.854223 -3.014865
C    2.405785 -0.390307 0.635193
C    2.442043 -1.823443 3.084179
H    1.859905 2.410498 -3.945591
H    2.459801 -2.377951 4.023176
C    0.893650 1.571782 -2.236072
C    1.049585 0.835196 -1.027545
C    2.793567 -1.771329 0.648504
C    2.822737 -2.484647 1.884838
O    -0.002229 0.558400 -0.251456
H    -0.109393 1.899502 -2.511910
C    3.142930 -2.461079 -0.547602
C    3.231054 -3.848421 1.893812
H    3.095476 -1.928286 -1.498444
H    3.264489 -4.380045 2.847717
C    3.529700 -3.779354 -0.506900
C    3.581954 -4.479947 0.725521
H    3.796440 -4.292291 -1.431721
H    3.900308 -5.523456 0.740254
H    -1.334246 -0.830652 3.305455
C    -3.857314 -1.675521 1.419305
C    -4.914844 -0.843851 0.907471
C    -3.158723 0.511812 1.599146
C    -1.510547 -1.210323 2.286409
C    -4.483696 0.488389 0.885464
N    -2.791972 -0.784854 1.782913
O    -2.492894 1.484026 1.942261
O    -3.772248 -2.879323 1.603757
H    -5.868587 -1.248351 0.577362
H    -0.700990 -0.867516 1.622429
H    -5.110980 1.378819 0.899312
H    -1.512162 -2.306883 2.308805
