          85
 
O      -1.8788645      2.4306873     -0.7864862
C      -3.0693368      2.1667003     -0.9270283
O      -4.0165160      3.1246202     -0.9103293
C      -3.5979382      4.4830060     -0.7855026
C      -3.1859517      5.0651410     -2.1240648
C      -3.6356114      0.8460509     -1.0726006
N      -2.8073786     -0.2054848     -1.1542357
C      -3.3179856     -1.3792321     -1.3722130
C      -2.5130841     -2.5978807     -1.3090380
C      -3.1188148     -3.8432448     -1.5316723
C      -2.3760029     -5.0198640     -1.4610064
C      -1.0144900     -4.9676012     -1.1581431
C      -0.4051437     -3.7322423     -0.9111774
C      -1.1447614     -2.5562075     -0.9849928
H      -4.4680551      5.0142806     -0.3789225
H      -2.7746431      4.5410876     -0.0612615
H      -2.3036780      4.5406971     -2.5144771
H      -2.9354541      6.1290286     -2.0087738
H      -4.0067389      4.9801574     -2.8496674
H      -0.8193979      1.0418536     -0.5471150
H      -4.6676390      0.7944922     -1.4495035
H      -4.3700878     -1.4936982     -1.6793119
H      -4.1872065     -3.8847946     -1.7573254
H      -2.8649573     -5.9824950     -1.6297250
H      -0.4319592     -5.8884521     -1.1008538
H       0.6549144     -3.6883532     -0.6490873
H      -0.6837124     -1.5862650     -0.7880143
H       1.9232407      4.7985936      1.3097156
C       1.6954019      3.7594338      1.5275814
H       3.5061117      2.5085236      1.1585765
H      -1.6086732      3.5913542      2.1301800
C       2.4714179      2.6445062      1.4577982
H      -0.7293806      4.9897214      1.4211563
C      -0.7076553      4.2124351      2.1919436
N       0.4458905      3.3522308      1.9506001
H       6.8595862      0.3720360     -1.4914312
H       6.5565153      1.6103739     -3.6433761
C       5.8579491      0.6639229     -1.8114427
C       5.6877113      1.3689132     -3.0294276
N       1.6796182      1.5809243      1.8466901
H      -0.6189644      4.6768529      3.1822407
C       0.4547380      2.0364044      2.1264113
C       4.7744867      0.3402433     -1.0269376
C       4.4275271      1.7505483     -3.4263255
H       1.7917694      0.0158776      3.9854843
H       4.9189108     -0.2038137     -0.0908067
H       4.2793921      2.3030112     -4.3578194
C       2.0629750      0.1970834      1.8388003
C       2.0684511     -0.5042993      3.0675789
C       3.4542234      0.7053636     -1.4207249
C       3.2900600      1.4395041     -2.6333830
H      -0.4264044      1.4458855      2.3839105
C       2.3037845      0.3832174     -0.6340354
C       1.9829795      1.8544575     -3.0148774
C       2.4054635     -0.3903548      0.6350340
C       2.4420310     -1.8234364      3.0842150
H       1.8600803      2.4107780     -3.9456295
H       2.4600002     -2.3778742      4.0232573
C       0.8936945      1.5727960     -2.2358815
C       1.0490475      0.8363259     -1.0269045
C       2.7934596     -1.7713653      0.6485301
C       2.8227111     -2.4846689      1.8848619
O      -0.0038464      0.5621480     -0.2520643
H      -0.1095057      1.9017262     -2.5098365
C       3.1428791     -2.4610884     -0.5475608
C       3.2310822     -3.8484252      1.8938394
H       3.0952144     -1.9282690     -1.4983652
H       3.2645930     -4.3800564      2.8477440
C       3.5297324     -3.7793271     -0.5068734
C       3.5819975     -4.4799215      0.7255357
H       3.7964085     -4.2922716     -1.4317060
H       3.9003722     -5.5234277      0.7402553
H      -1.3315400     -0.8255590      3.2992752
C      -3.8427013     -1.6774013      1.4240588
C      -4.9246603     -0.8390628      0.9238539
C      -3.1712034      0.5117967      1.6070688
C      -1.5055799     -1.2091591      2.2815688
C      -4.5263315      0.4761912      0.9618442
N      -2.7905332     -0.7902018      1.7798851
O      -2.4994067      1.4804604      1.9423029
O      -3.7720303     -2.8788108      1.5975388
H      -5.8783080     -1.2525414      0.6039942
H      -0.6995240     -0.8645418      1.6147536
H      -5.1350825      1.3776079      0.8887698
H      -1.5008674     -2.3055393      2.3071628
