85
CONF74
O 0.7686284191 -0.1441597767 -2.0871855302
C 1.2210473422 -1.2707169494 -1.8579626641
O 1.4559589036 -2.1603828314 -2.8523683689
C 1.2025361208 -1.6957808589 -4.2005712830
C 1.4603133977 -2.8556934960 -5.1317176986
C 1.5970968730 -1.8045747746 -0.5667508417
N 1.3170492895 -1.0568179268 0.5234144655
C 1.5386920573 -1.5906860131 1.6930624692
C 1.4029350542 -0.8299543392 2.9226792652
C 1.2611986501 0.5690679780 2.9154214612
C 1.1410667998 1.2731818930 4.1051063100
C 1.1693339534 0.6042008864 5.3309855587
C 1.3229827860 -0.7816341300 5.3518484573
C 1.4394642503 -1.4908222326 4.1616290613
H 0.1663142949 -1.3471615737 -4.2687220337
H 1.8659424739 -0.8500632863 -4.4125344634
H 1.2840568966 -2.5384427313 -6.1644706264
H 0.7910134773 -3.6931104825 -4.9105170655
H 2.4948805759 -3.2029629492 -5.0514144791
H 0.1988146240 0.8772948998 -0.7936211523
H 1.6682718233 -2.8946965684 -0.5015487958
H 1.7411822508 -2.6645333228 1.8038460382
H 1.2549912644 1.0862392965 1.9614369799
H 1.0335827690 2.3542615149 4.0814281918
H 1.0811590338 1.1592808100 6.2599148348
H 1.3531581010 -1.3106693080 6.3000834033
H 1.5620259480 -2.5711638321 4.1819475839
H -3.3856741620 4.4722690697 -2.5622080202
C -2.9192960389 3.4998526976 -2.5621380401
H -4.1155680431 2.0928698445 -1.3220490463
H -0.1543033098 3.7460149553 -4.5067226562
C -3.2770923066 2.3381061499 -1.9540522258
H -0.6606023875 5.0306515977 -3.3758724884
C -1.0087198588 4.2376736486 -4.0416949534
N -1.7559584325 3.2494607475 -3.2657656952
H -6.1929090187 -0.3163720244 2.2501664903
H -6.1146223416 1.5277100776 3.9204277903
C -5.3366353102 0.3510659612 2.2761518061
C -5.2967652132 1.3976428860 3.2187658771
N -2.3250402796 1.3964714768 -2.3004293361
H -1.6585575852 4.6585553606 -4.8121231546
C -1.4108778242 1.9740897781 -3.0946156467
C -4.3032139352 0.1637131246 1.3854103786
C -4.2222601882 2.2564010939 3.2337395018
H -2.4484892729 -0.6686712049 -3.9022059316
H -4.3584307204 -0.6472047594 0.6672978855
H -4.1812628233 3.0792697183 3.9426513654
C -2.2630846286 0.0289493395 -1.8698222851
C -2.3161951763 -0.9624708053 -2.8662997659
C -3.1668994722 1.0127940471 1.3912811793
C -3.1503129316 2.0971201513 2.3256612714
H -0.5265537442 1.4851158532 -3.4769433327
C -2.0785166081 0.8435191536 0.4773923838
C -2.0621579413 3.0039619368 2.3010558673
C -2.1166934912 -0.2515996842 -0.5237737948
C -2.2079258427 -2.2798072539 -2.5084237298
H -2.0488759630 3.8282051175 3.0089178498
H -2.2433820741 -3.0585518331 -3.2644418256
C -1.0436696790 2.8481636977 1.4051934144
C -1.0333832394 1.7647447421 0.4884500806
C -2.0046206374 -1.6255266393 -0.1454377487
C -2.0432901388 -2.6438763875 -1.1516822494
O 0.0209372567 1.7469674217 -0.3452472985
H -0.2041176304 3.5361362552 1.3825166480
C -1.8131477618 -2.0141069577 1.2022738560
C -1.8995337374 -3.9998285017 -0.7697757850
H -1.7586954331 -1.2492233146 1.9687595165
H -1.9272730615 -4.7626352073 -1.5428349288
C -1.6769316355 -3.3389042074 1.5402008860
C -1.7197477824 -4.3416138814 0.5486331933
H -1.5204550311 -3.6162548595 2.5781370761
H -1.6056314088 -5.3835106758 0.8313214427
H 3.4726161679 2.3050415040 0.0423894219
C 4.3746913760 -0.6197456317 1.3881732850
C 4.1779015607 -1.9168403545 0.7811709566
C 3.8990396705 -0.2926737321 -0.8468241901
C 4.2949916048 1.7627746435 0.5184764699
C 3.7975570123 -1.7455699677 -0.5380927519
N 4.1093998887 0.3377717590 0.3654460955
O 3.8397614086 0.2700008076 -1.9348934034
O 4.7454992124 -0.3033611636 2.5161993418
H 4.3362309335 -2.8421160583 1.3171211382
H 5.2393102397 2.0997607070 0.0719034014
H 3.8668342191 -2.4739173216 -1.3355742774
H 4.3082320439 1.9909901671 1.5869518065
