85
Energy = 0.00 kcal/mol
O    -1.569704 2.319916 -0.964022
C    -2.725105 2.077416 -1.246739
O    -3.647587 3.035917 -1.469192
C    -3.308741 4.386765 -1.156324
C    -3.760580 4.715322 0.255409
C    -3.347979 0.756451 -1.326997
N    -2.571421 -0.362309 -1.338422
C    -3.205243 -1.492561 -1.498549
C    -2.611708 -2.821494 -1.330155
C    -3.350023 -3.938127 -1.754526
C    -2.845347 -5.227976 -1.605694
C    -1.594033 -5.426201 -1.018755
C    -0.860803 -4.324204 -0.574012
C    -1.363636 -3.034662 -0.718509
H    -2.226877 4.526714 -1.282164
H    -3.826725 5.006810 -1.898922
H    -3.386155 5.703258 0.561214
H    -3.382547 3.952049 0.951840
H    -4.857698 4.726452 0.316903
H    -1.104704 -0.178517 -0.814294
H    -4.290587 0.741883 -1.885754
H    -4.228563 -1.473113 -1.897336
H    -4.331518 -3.787553 -2.212039
H    -3.428747 -6.084775 -1.946363
H    -1.197127 -6.435613 -0.895759
H    0.113901 -4.467348 -0.101682
H    -0.782308 -2.188508 -0.353357
H    1.955982 4.839956 2.595751
C    1.741523 3.812201 2.318667
H    3.434428 2.493181 2.939869
H    -0.093304 5.220714 0.765433
C    2.460713 2.669574 2.492345
H    -1.023564 4.694246 2.210972
C    -0.508109 4.359941 1.302831
N    0.580151 3.458968 1.665999
H    6.550633 1.441529 -1.101801
H    6.128886 2.434335 -3.358999
C    5.542362 1.429197 -1.519035
C    5.305374 1.990510 -2.798154
N    1.716805 1.644356 1.939655
H    -1.193862 3.799049 0.659973
C    0.581422 2.149432 1.440746
C    4.512359 0.871391 -0.796737
C    4.035637 1.974173 -3.327617
H    2.111762 0.183359 4.090303
H    4.701744 0.440088 0.188318
H    3.838089 2.401972 -4.312740
C    2.102527 0.261953 1.921507
C    2.279548 -0.380753 3.172020
C    3.187151 0.851458 -1.316024
C    2.951292 1.407465 -2.607750
H    -0.220356 1.591849 0.946884
C    2.091888 0.302572 -0.588491
C    1.629973 1.377255 -3.139954
C    2.286788 -0.383204 0.717397
C    2.642825 -1.700975 3.206192
H    1.458035 1.785293 -4.138246
H    2.779402 -2.209212 4.161963
C    0.586126 0.857162 -2.423044
C    0.810123 0.324890 -1.118483
C    2.646771 -1.771320 0.746138
C    2.830197 -2.429102 1.997744
O    -0.174000 -0.154314 -0.365643
H    -0.428851 0.844869 -2.820462
C    2.828678 -2.516408 -0.453181
C    3.193961 -3.803306 2.012713
H    2.683402 -2.019833 -1.413538
H    3.334943 -4.296644 2.975923
C    3.180963 -3.844636 -0.405972
C    3.366250 -4.496604 0.838875
H    3.317944 -4.402069 -1.333564
H    3.645932 -5.550871 0.861892
H    -1.476896 -0.170399 3.327796
C    -3.719327 -1.500305 1.335879
C    -4.731262 -0.775693 0.602300
C    -3.102088 0.719006 1.328234
C    -1.544854 -0.853091 2.467971
C    -4.341598 0.562226 0.489778
N    -2.710075 -0.545272 1.675045
O    -2.515222 1.745755 1.641213
O    -3.647141 -2.664376 1.687818
H    -5.660462 -1.235037 0.276417
H    -0.627567 -0.772247 1.864517
H    -4.996801 1.421360 0.344568
H    -1.654015 -1.885517 2.822439
