          85
 
O      -1.5784469      2.3107608     -0.9738439
C      -2.7385787      2.0788531     -1.2312125
O      -3.6515710      3.0353345     -1.4650303
C      -3.3095016      4.3891144     -1.1577856
C      -3.7601446      4.7170317      0.2542589
C      -3.3895465      0.7475335     -1.2506168
N      -2.5705950     -0.3627293     -1.3304965
C      -3.2043689     -1.4889005     -1.4931662
C      -2.6105679     -2.8215358     -1.3311146
C      -3.3502202     -3.9360111     -1.7558662
C      -2.8461251     -5.2263991     -1.6068430
C      -1.5950523     -5.4239996     -1.0193566
C      -0.8609190     -4.3230513     -0.5738440
C      -1.3638553     -3.0333486     -0.7182492
H      -2.2278212      4.5262711     -1.2868441
H      -3.8287469      5.0058798     -1.9016523
H      -3.3846628      5.7046165      0.5595073
H      -3.3822690      3.9535909      0.9507463
H      -4.8571142      4.7288474      0.3161104
H      -1.1088985     -0.1799176     -0.8145128
H      -4.2872057      0.7426935     -1.8902749
H      -4.2287950     -1.4715472     -1.8888527
H      -4.3320925     -3.7846767     -2.2122244
H      -3.4295541     -6.0833005     -1.9468494
H      -1.1986813     -6.4336295     -0.8959938
H       0.1131335     -4.4671768     -0.1007084
H      -0.7841138     -2.1866579     -0.3517266
H       1.9559836      4.8400907      2.5952270
C       1.7416186      3.8122336      2.3184482
H       3.4348239      2.4936371      2.9396430
H      -0.0938499      5.2193231      0.7635744
C       2.4610018      2.6697430      2.4922372
H      -1.0224777      4.6953057      2.2112660
C      -0.5079738      4.3595958      1.3031251
N       0.5801223      3.4586116      1.6661118
H       6.5505059      1.4413659     -1.1016852
H       6.1289794      2.4342496     -3.3589035
C       5.5422447      1.4291491     -1.5189497
C       5.3053957      1.9905214     -2.7980920
N       1.7171811      1.6443131      1.9399420
H      -1.1956484      3.7983890      0.6631158
C       0.5816300      2.1489220      1.4414950
C       4.5122041      0.8714035     -0.7966661
C       4.0356828      1.9742783     -3.3275544
H       2.1117757      0.1832105      4.0904292
H       4.7016020      0.4400602      0.1883666
H       3.8381671      2.4020268     -4.3127096
C       2.1027302      0.2618389      1.9216591
C       2.2796773     -0.3808435      3.1721391
C       3.1869189      0.8515131     -1.3159246
C       2.9513055      1.4076103     -2.6076945
H      -0.2201718      1.5892849      0.9503822
C       2.0916101      0.3026045     -0.5884463
C       1.6301862      1.3769764     -3.1402005
C       2.2866910     -0.3831786      0.7174411
C       2.6428549     -1.7010672      3.2062342
H       1.4584301      1.7844877     -4.1387513
H       2.7792891     -2.2093985      4.1619699
C       0.5864742      0.8561350     -2.4236406
C       0.8095938      0.3244149     -1.1185463
C       2.6467259     -1.7712920      0.7461457
C       2.8301916     -2.4291006      1.9977357
O      -0.1749482     -0.1540630     -0.3663408
H      -0.4279730      0.8415828     -2.8221166
C       2.8286616     -2.5163851     -0.4531766
C       3.1939464     -3.8033089      2.0126850
H       2.6834811     -2.0197794     -1.4135362
H       3.3348893     -4.2966502      2.9758957
C       3.1809621     -3.8446206     -0.4059891
C       3.3662337     -4.4966140      0.8388524
H       3.3180341     -4.4020232     -1.3335905
H       3.6459193     -5.5508799      0.8618733
H      -1.4805342     -0.1765372      3.3360990
C      -3.7316126     -1.4997449      1.3289653
C      -4.7150140     -0.7836394      0.5806172
C      -3.0873724      0.7180484      1.3213272
C      -1.5497312     -0.8541209      2.4720961
C      -4.2882723      0.5669892      0.4134612
N      -2.7113436     -0.5402257      1.6776079
O      -2.5090915      1.7491036      1.6423871
O      -3.6489318     -2.6633235      1.6952990
H      -5.6514962     -1.2296327      0.2575387
H      -0.6305160     -0.7720605      1.8710999
H      -4.9732343      1.4219983      0.3575584
H      -1.6627726     -1.8884824      2.8198684
