85
Energy = 0.00 kcal/mol
O    0.683829 -1.541115 0.748215
C    1.483081 -0.972451 1.461505
O    1.833579 -1.452434 2.668017
C    1.291194 -2.723627 3.013791
C    1.874466 -3.132802 4.345878
C    2.233918 0.234629 1.119577
N    1.865390 0.901100 -0.010716
C    2.518092 2.003219 -0.245226
C    2.439550 2.764236 -1.493497
C    1.933690 2.209080 -2.678898
C    1.850175 2.980258 -3.834568
C    2.285841 4.308339 -3.834995
C    2.821728 4.858212 -2.668702
C    2.902921 4.087590 -1.510881
H    0.192230 -2.646305 3.059439
H    1.538825 -3.438512 2.215362
H    1.473471 -4.109324 4.648695
H    1.624045 -2.395846 5.121730
H    2.968191 -3.210175 4.278443
H    0.590704 0.148162 -0.955086
H    2.619276 0.801215 1.976942
H    3.079874 2.483676 0.569402
H    1.596506 1.172394 -2.680911
H    1.448628 2.540130 -4.749625
H    2.219839 4.907901 -4.744826
H    3.177445 5.890285 -2.662740
H    3.314460 4.519322 -0.594726
H    -3.050685 -4.489961 1.203745
C    -2.893745 -3.469020 1.537522
H    -1.183023 -2.557834 0.415000
H    -5.124981 -2.886401 4.017831
C    -1.990262 -2.531509 1.138584
H    -4.423151 -4.494320 3.659212
C    -4.768432 -3.550017 3.224285
N    -3.657230 -2.902745 2.537327
H    -6.442592 -0.115876 0.891916
H    -7.240390 -1.520980 -1.019863
C    -5.735526 -0.445470 0.128307
C    -6.190538 -1.231794 -0.956152
N    -2.221650 -1.406765 1.907702
H    -5.575804 -3.740372 2.507695
C    -3.238524 -1.659788 2.738879
C    -4.412404 -0.073315 0.221082
C    -5.301802 -1.607902 -1.936952
H    -1.131098 -0.100932 3.915692
H    -4.089727 0.561656 1.048458
H    -5.636396 -2.197295 -2.793748
C    -1.606248 -0.111018 1.798265
C    -1.100776 0.466820 2.984270
C    -3.459154 -0.476785 -0.758236
C    -3.933479 -1.240462 -1.864241
H    -3.663736 -0.952160 3.447236
C    -2.065652 -0.141157 -0.657192
C    -3.008476 -1.613042 -2.881824
C    -1.559930 0.529588 0.571169
C    -0.551460 1.723906 2.940038
H    -3.365382 -2.195196 -3.734202
H    -0.142434 2.176787 3.844909
C    -1.697156 -1.245612 -2.799137
C    -1.192751 -0.503575 -1.683232
C    -1.018228 1.853215 0.530069
C    -0.505671 2.448438 1.721032
O    0.101234 -0.230412 -1.750363
H    -0.978769 -1.518172 -3.573295
C    -0.978769 2.601853 -0.679983
C    0.046924 3.758097 1.661426
H    -1.364553 2.152464 -1.595595
H    0.446237 4.199062 2.577160
C    -0.450265 3.868218 -0.702957
C    0.073044 4.453059 0.477594
H    -0.403574 4.419792 -1.643926
H    0.503502 5.454946 0.437524
H    3.627666 -2.421258 -3.016978
C    4.503184 0.343315 -1.524920
C    4.748243 0.556073 -0.117698
C    3.614470 -1.456477 -0.393750
C    3.232537 -1.408896 -2.847980
C    4.109806 -0.458154 0.608797
N    3.738524 -0.854735 -1.619851
O    3.166517 -2.571154 -0.197441
O    4.850260 0.966473 -2.515863
H    5.375796 1.361033 0.254183
H    3.555906 -0.747812 -3.661365
H    4.387518 -0.813703 1.601815
H    2.133357 -1.450175 -2.817946
