85
Energy = 0.00 kcal/mol
O    1.056220 2.070469 1.431605
C    2.184773 2.406540 1.116768
O    2.889880 3.297160 1.829613
C    2.323089 3.707506 3.071742
C    3.310409 4.623485 3.756300
C    2.967213 1.873771 0.004782
N    2.402149 0.900851 -0.748569
C    3.073942 0.422560 -1.758707
C    2.629704 -0.769407 -2.486223
C    1.765695 -1.704357 -1.891606
C    1.339756 -2.824456 -2.597427
C    1.784999 -3.044619 -3.903737
C    2.671741 -2.141044 -4.491728
C    3.093816 -1.015233 -3.786763
H    1.365146 4.215919 2.881394
H    2.120086 2.805528 3.669103
H    2.901717 4.962924 4.717380
H    3.517310 5.504745 3.133686
H    4.256132 4.097432 3.945053
H    0.812269 0.617698 -0.595860
H    3.716640 2.546052 -0.426230
H    3.927034 0.976832 -2.172859
H    1.450116 -1.548817 -0.859257
H    0.668415 -3.541724 -2.120640
H    1.453973 -3.926274 -4.455297
H    3.035736 -2.314228 -5.506070
H    3.784980 -0.307337 -4.250478
H    -4.026884 2.448066 3.955080
C    -3.635603 2.282484 2.956088
H    -5.315890 1.832325 1.556017
H    -1.341188 1.889417 4.492271
C    -4.266547 1.990593 1.785836
H    -1.302396 3.619556 4.017732
C    -1.225421 2.587617 3.655716
N    -2.284406 2.333657 2.682607
H    -5.790209 -2.648901 1.964024
H    -4.419221 -3.653417 3.795683
C    -4.718363 -2.448222 2.008404
C    -3.941858 -3.020311 3.046441
N    -3.284130 1.876189 0.821628
H    -0.264236 2.423230 3.154768
C    -2.091273 2.087878 1.391715
C    -4.133614 -1.649232 1.053093
C    -2.589565 -2.775569 3.103615
H    -4.720545 3.101704 -1.061359
H    -4.739427 -1.221071 0.251485
H    -1.979379 -3.209591 3.899099
C    -3.477582 1.404811 -0.521310
C    -4.276843 2.166888 -1.406348
C    -2.735231 -1.380463 1.085572
C    -1.955648 -1.954302 2.133695
H    -1.118642 2.061126 0.891955
C    -2.094387 -0.549386 0.120186
C    -0.562704 -1.664161 2.188982
C    -2.884432 0.211676 -0.884780
C    -4.466653 1.717465 -2.688071
H    0.025026 -2.079382 3.010951
H    -5.078854 2.290147 -3.386679
C    0.037889 -0.863721 1.253709
C    -0.730381 -0.307731 0.188200
C    -3.049021 -0.241871 -2.229288
C    -3.852224 0.513651 -3.133967
O    -0.195967 0.514114 -0.708682
H    1.089715 -0.585343 1.331021
C    -2.417232 -1.430360 -2.688498
C    -4.011211 0.046736 -4.468170
H    -1.789266 -1.991932 -1.995140
H    -4.630085 0.625435 -5.156665
C    -2.581606 -1.849325 -3.986612
C    -3.390384 -1.106504 -4.884279
H    -2.083547 -2.756093 -4.333175
H    -3.514041 -1.453546 -5.911225
H    2.183665 -2.855647 1.040690
C    4.499531 -1.362122 0.091949
C    5.099179 -0.046952 -0.028760
C    3.655319 -0.058854 1.794341
C    2.941644 -2.455775 1.729505
C    4.551970 0.784545 0.940202
N    3.585848 -1.290036 1.177787
O    3.070615 0.251212 2.815835
O    4.686103 -2.399836 -0.516414
H    5.896088 0.170216 -0.734673
H    2.459595 -2.157989 2.669176
H    4.990528 1.685655 1.366870
H    3.681227 -3.244200 1.929307
