85
Energy = 0.00 kcal/mol
O    1.439551 2.320192 1.378418
C    2.572279 2.519520 0.956987
O    3.340773 3.485974 1.465514
C    2.797331 4.244430 2.544456
C    3.855067 5.225561 2.991716
C    3.262878 1.758570 -0.079760
N    2.550328 0.759918 -0.677980
C    3.097019 0.199686 -1.703883
C    2.523000 -0.979956 -2.359266
C    1.377696 -1.613784 -1.851095
C    0.845534 -2.725043 -2.497738
C    1.444625 -3.222173 -3.660329
C    2.586018 -2.600254 -4.168194
C    3.122970 -1.490017 -3.518461
H    1.886345 4.754848 2.195873
H    2.506682 3.552061 3.347554
H    3.475360 5.836929 3.820904
H    4.137100 5.892566 2.165405
H    4.753371 4.692537 3.332103
H    0.332177 1.488465 0.485338
H    3.979388 2.347946 -0.668047
H    3.991729 0.632420 -2.179868
H    0.922288 -1.210144 -0.945899
H    -0.041357 -3.216722 -2.091989
H    1.025558 -4.094427 -4.164946
H    3.060526 -2.981439 -5.074343
H    4.017233 -1.002626 -3.914292
H    -3.092211 1.923122 4.362025
C    -3.055365 2.078288 3.288282
H    -4.244385 0.490388 2.260322
H    -2.205356 4.580684 4.217816
C    -3.622544 1.381159 2.265870
H    -1.232339 4.879914 2.746969
C    -1.572719 4.116662 3.453278
N    -2.354986 3.125160 2.722844
H    -5.409494 -3.745446 0.725733
H    -3.919809 -5.084745 2.220847
C    -4.410214 -3.376990 0.965247
C    -3.568597 -4.135129 1.814699
N    -3.259291 2.021951 1.098810
H    -0.709929 3.627504 3.919184
C    -2.485925 3.065178 1.403139
C    -3.980436 -2.180512 0.437906
C    -2.313774 -3.665229 2.125958
H    -4.746420 3.383214 -0.622803
H    -4.641742 -1.609139 -0.215594
H    -1.656680 -4.235263 2.785912
C    -3.565497 1.602090 -0.240096
C    -4.362151 2.452751 -1.042526
C    -2.681032 -1.674829 0.731864
C    -1.843204 -2.431202 1.603092
H    -2.024976 3.736311 0.682405
C    -2.203681 -0.433570 0.207470
C    -0.556190 -1.919016 1.937898
C    -3.051922 0.401399 -0.686464
C    -4.646645 2.081348 -2.331094
H    0.080525 -2.505839 2.603508
H    -5.263084 2.719971 -2.965980
C    -0.116465 -0.718320 1.447832
C    -0.950176 0.041975 0.573040
C    -3.336089 0.017419 -2.036526
C    -4.140521 0.861696 -2.858533
O    -0.543683 1.219075 0.094141
H    0.868384 -0.314957 1.703628
C    -2.806124 -1.179566 -2.593450
C    -4.405241 0.471488 -4.200724
H    -2.176495 -1.813659 -1.969822
H    -5.024846 1.120794 -4.821894
C    -3.070923 -1.524562 -3.896416
C    -3.884087 -0.693695 -4.708047
H    -2.649462 -2.440938 -4.312417
H    -4.087853 -0.981449 -5.740330
H    2.551186 -2.915721 1.172346
C    4.769105 -1.427746 0.231610
C    5.364719 -0.135692 0.025267
C    3.871319 -0.009603 1.814683
C    3.168210 -2.397231 1.918834
C    4.770146 0.781402 0.900048
N    3.854684 -1.284095 1.320129
O    3.247437 0.390307 2.783464
O    4.949607 -2.514881 -0.296607
H    6.138127 0.048513 -0.714892
H    2.534130 -2.006966 2.725023
H    5.222015 1.695136 1.289739
H    3.883502 -3.118410 2.343472
