          85
 
O       1.4290757      2.3171958      1.3932841
C       2.5555745      2.5255016      0.9439514
O       3.3367812      3.4863816      1.4627427
C       2.7975580      4.2411897      2.5435840
C       3.8549609      5.2238256      2.9905966
C       3.1975180      1.8035577     -0.1213329
N       2.5456776      0.7696098     -0.6857613
C       3.1001715      0.1981551     -1.7083643
C       2.5271515     -0.9811028     -2.3569483
C       1.3791812     -1.6149169     -1.8508399
C       0.8460735     -2.7251914     -2.4980759
C       1.4435386     -3.2237387     -3.6610860
C       2.5852945     -2.6015966     -4.1684502
C       3.1239058     -1.4928846     -3.5185583
H       1.8846897      4.7532343      2.2009527
H       2.5085144      3.5503923      3.3487408
H       3.4759215      5.8350677      3.8203125
H       4.1360927      5.8911618      2.1641248
H       4.7544128      4.6918772      3.3300035
H       0.3270767      1.5025668      0.5047891
H       3.9993074      2.3350099     -0.6581230
H       3.9876165      0.6401310     -2.1902419
H       0.9217739     -1.2102514     -0.9470955
H      -0.0420930     -3.2149469     -2.0923659
H       1.0231572     -4.0950683     -4.1661118
H       3.0588764     -2.9818010     -5.0756864
H       4.0175729     -1.0055812     -3.9160740
H      -3.0922917      1.9232551      4.3619770
C      -3.0553903      2.0783484      3.2882351
H      -4.2443583      0.4904309      2.2601891
H      -2.2047473      4.5802456      4.2180845
C      -3.6225562      1.3812201      2.2658189
H      -1.2321821      4.8797865      2.7468393
C      -1.5723769      4.1164874      3.4531626
N      -2.3549178      3.1251725      2.7228012
H      -5.4094112     -3.7450133      0.7256716
H      -3.9198619     -5.0846026      2.2208365
C      -4.4100467     -3.3767541      0.9651921
C      -3.5685914     -4.1350144      1.8146512
N      -3.2592450      2.0219917      1.0987766
H      -0.7091406      3.6272102      3.9180573
C      -2.4856370      3.0650315      1.4031145
C      -3.9800222     -2.1803340      0.4377499
C      -2.3137372     -3.6650156      2.1258837
H      -4.7463586      3.3831925     -0.6227778
H      -4.6413506     -1.6090025     -0.2157801
H      -1.6567157     -4.2350326      2.7859662
C      -3.5653447      1.6021146     -0.2401194
C      -4.3621199      2.4527186     -1.0425192
C      -2.6804614     -1.6745652      0.7314702
C      -1.8430452     -2.4310761      1.6030175
H      -2.0240775      3.7357651      0.6824049
C      -2.2028801     -0.4331350      0.2073472
C      -0.5560352     -1.9187042      1.9379884
C      -3.0515508      0.4015014     -0.6864602
C      -4.6466738      2.0813511     -2.3310814
H       0.0802385     -2.5058490      2.6038062
H      -5.2631116      2.7199795     -2.9659672
C      -0.1162412     -0.7179931      1.4482489
C      -0.9493704      0.0436748      0.5735042
C      -3.3360227      0.0174763     -2.0365092
C      -4.1405513      0.8616808     -2.8585037
O      -0.5421987      1.2205499      0.0970581
H       0.8682676     -0.3133424      1.7031345
C      -2.8059965     -1.1794793     -2.5934631
C      -4.4052798      0.4714526     -4.2006943
H      -2.1758478     -1.8132044     -1.9699876
H      -5.0248717      1.1207721     -4.8218737
C      -3.0708698     -1.5245400     -3.8964051
C      -3.8841121     -0.6937304     -4.7080183
H      -2.6491238     -2.4407728     -4.3124362
H      -4.0878432     -0.9814555     -5.7403235
H       2.5396458     -2.9161872      1.1754468
C       4.7566663     -1.4385066      0.2389915
C       5.3789725     -0.1357597      0.0386997
C       3.8866107     -0.0089368      1.8181524
C       3.1620278     -2.3986196      1.9178492
C       4.8465276      0.7455730      0.9428711
N       3.8513196     -1.2891532      1.3143026
O       3.2544919      0.3887968      2.7794931
O       4.9470589     -2.5115896     -0.3008600
H       6.1599809      0.0356860     -0.6967760
H       2.5324438     -2.0030100      2.7246485
H       5.2345615      1.7148913      1.2661937
H       3.8773211     -3.1196583      2.3425025
