  85
G(CENSO)=       -2140.74433981  G(xTB)=        -135.55317998        !CONF24
O   -1.9844091095   1.9030329290  -1.7878212566
C   -3.1927240860   1.7185446450  -1.7232779316
O   -4.0843978601   2.6919179190  -1.9911658338
C   -3.5712106295   3.9740932959  -2.3690907180
C   -3.3729589320   4.0743816968  -3.8758565821
C   -3.8395447592   0.4881756009  -1.3323476366
N   -3.0637694671  -0.6093543016  -1.1962051257
C   -3.6257427098  -1.7472756085  -0.9578442505
C   -2.8468656875  -2.9253986179  -0.6560079825
C   -3.4889504537  -4.1293809333  -0.3628595224
C   -2.7553318254  -5.2529543833  -0.0340791898
C   -1.3718669340  -5.1932352358   0.0070257541
C   -0.7233770636  -4.0010325254  -0.2814643532
C   -1.4505365240  -2.8758438216  -0.6090980182
H   -4.3214279833   4.6890300756  -2.0244495953
H   -2.6252069787   4.1404637292  -1.8442057932
H   -3.0274154785   5.0721813657  -4.1293894903
H   -4.3100451921   3.8764764173  -4.3903830419
H   -2.6339985252   3.3469810045  -4.2040058910
H   -0.7617066033   0.7223265673  -1.1952934925
H   -4.8860358867   0.3922504591  -1.6446028324
H   -4.7115841894  -1.8833553318  -1.0544995171
H   -4.5691759420  -4.1714909694  -0.3829920215
H   -3.2654778598  -6.1772187529   0.1970421255
H   -0.8018176186  -6.0727494226   0.2679677449
H    0.3549130523  -3.9498142833  -0.2434494866
H   -0.9635073845  -1.9390953282  -0.8295697571
H    2.2696622935   4.0063638384   3.7073745768
C    1.9897190617   3.1430124125   3.1404051910
H    3.5065064404   1.5628955527   3.4536567173
H   -0.9916755027   3.7459989938   1.7517353657
C    2.6021278647   1.9343684852   3.0191306664
H    0.3102844816   4.9467448402   1.5809097516
C   -0.0964041423   4.1584445442   2.2149157497
N    0.8643279895   3.1025319991   2.3733782066
H    6.8911152206   1.2890345839  -0.2814716302
H    6.8301433190   3.0528913170  -2.0028892190
C    5.9473624592   1.5550034405  -0.7346271317
C    5.9138255669   2.5589889213  -1.7149419327
N    1.8402209422   1.1820398410   2.1733462107
H   -0.3493102416   4.5782319563   3.1872902942
C    0.7945317278   1.9124486084   1.7930899200
C    4.7998649898   0.9152301243  -0.3566387867
C    4.7277396967   2.9034151507  -2.3017028152
H    1.9936862042  -0.8468828488   3.8167298444
H    4.8307911250   0.1371063172   0.3917681880
H    4.6919538252   3.6730130404  -3.0596657130
C    2.1279443546  -0.1534423397   1.7859076314
C    2.1894085610  -1.1321772334   2.7949855228
C    3.5592513507   1.2470108703  -0.9442664144
C    3.5263521165   2.2623479187  -1.9360909019
H   -0.0184600679   1.5880220888   1.1684587556
C    2.3543317714   0.6043628531  -0.5703872467
C    2.2890167172   2.5969416459  -2.5265784708
C    2.3678980305  -0.4566842512   0.4650559430
C    2.4825328972  -2.4242284447   2.4705282509
H    2.2650938808   3.3676788751  -3.2832323395
H    2.5291097159  -3.1839746938   3.2352843993
C    1.1392122341   1.9627815799  -2.1574088607
C    1.1581223323   0.9557724255  -1.1710660585
C    2.6673163297  -1.7990927832   0.1143037559
C    2.7267772915  -2.7903311576   1.1296560141
O    0.0324617068   0.3171304180  -0.7807181192
H    0.1883591066   2.2190466162  -2.5978244693
C    2.9168109756  -2.1761171940  -1.2222106111
C    3.0384788881  -4.1185588631   0.7702734371
H    2.8654269418  -1.4219945866  -1.9927114427
H    3.0803693233  -4.8683287459   1.5466385426
C    3.2133309797  -3.4730229961  -1.5377699220
C    3.2772819476  -4.4525888856  -0.5340791708
H    3.3983753465  -3.7528723403  -2.5640356966
H    3.5119746912  -5.4719410351  -0.8022257844
H   -1.5618399276  -1.7947291202   2.4922503985
C   -3.8575170051  -1.1708981773   1.6343013535
C   -4.9027398403  -0.3831700016   1.0882976575
C   -2.9826163316   0.8858083354   1.1284434392
C   -1.4262007663  -0.7719623040   2.1426793172
C   -4.3863197226   0.8249146846   0.6453850605
N   -2.7024432466  -0.3351577599   1.6406046356
O   -2.2049524734   1.8342408328   1.1042101847
O   -3.8460690951  -2.2898642450   2.1410434736
H   -5.9086542949  -0.7366918371   0.9596533635
H   -1.1111587541  -0.1337879070   2.9705312513
H   -4.9558809222   1.7174792589   0.4474136217
H   -0.6847959166  -0.7553250473   1.3438553089
