85
Energy = 0.00 kcal/mol
O    2.202712 -1.620238 1.630553
C    2.528554 -2.042847 0.539163
O    2.098660 -3.220603 0.069437
C    1.231022 -3.983324 0.907993
C    0.855704 -5.238283 0.155395
C    3.382508 -1.355170 -0.445933
N    4.063246 -0.249950 -0.008622
C    4.964954 0.219066 -0.798999
C    5.599269 1.522061 -0.560883
C    5.191462 2.336541 0.508914
C    5.795674 3.571807 0.720618
C    6.808974 4.015335 -0.136012
C    7.209670 3.217367 -1.208583
C    6.604134 1.979987 -1.422684
H    1.755763 -4.215284 1.847758
H    0.346084 -3.374293 1.143715
H    0.156253 -5.840879 0.750722
H    1.745544 -5.845408 -0.059449
H    0.375367 -4.976700 -0.797688
H    -0.339238 -0.962453 -0.264131
H    3.878471 -2.048074 -1.140612
H    5.323391 -0.351760 -1.671687
H    4.394503 1.971088 1.159627
H    5.482086 4.199705 1.557482
H    7.285065 4.982516 0.033188
H    7.998520 3.562716 -1.879028
H    6.913391 1.357203 -2.266247
H    -2.438717 -2.385700 4.492905
C    -2.041044 -1.693970 3.757385
H    -3.697900 -0.453672 2.913034
H    0.008397 -3.531538 4.023403
C    -2.656394 -0.751780 2.992288
H    0.494269 -2.174013 5.090922
C    0.336721 -2.486599 4.052296
N    -0.697907 -1.654854 3.444450
H    -7.383589 0.317245 0.379676
H    -8.201626 -2.031997 0.115118
C    -6.668814 -0.490866 0.217736
C    -7.132644 -1.819332 0.066859
N    -1.669866 -0.156281 2.232903
H    1.254778 -2.362969 3.469193
C    -0.492917 -0.721390 2.519062
C    -5.323212 -0.204827 0.156943
C    -6.228759 -2.836333 -0.136740
H    -0.956029 2.391875 2.405113
H    -4.984332 0.825262 0.281086
H    -6.572056 -3.867173 -0.245097
C    -1.872972 0.832060 1.209945
C    -1.417983 2.147648 1.448238
C    -4.363813 -1.233427 -0.068116
C    -4.835550 -2.571461 -0.208677
H    0.461394 -0.485508 2.041030
C    -2.957088 -0.960860 -0.138005
C    -3.885815 -3.614170 -0.412006
C    -2.472698 0.438920 0.032521
C    -1.573297 3.090772 0.467418
H    -4.242417 -4.639175 -0.531038
H    -1.235868 4.115230 0.630688
C    -2.548253 -3.342608 -0.456563
C    -2.060538 -2.007635 -0.316202
C    -2.620820 1.416769 -1.004171
C    -2.163591 2.748988 -0.780256
O    -0.730647 -1.883396 -0.359407
H    -1.811994 -4.133354 -0.607287
C    -3.207058 1.096292 -2.260596
C    -2.301841 3.713872 -1.815837
H    -3.557363 0.078089 -2.435475
H    -1.947762 4.731378 -1.635722
C    -3.326553 2.050457 -3.242836
C    -2.868590 3.373384 -3.020202
H    -3.776002 1.787219 -4.202104
H    -2.967871 4.119025 -3.810368
H    0.822085 3.284444 -0.993852
C    2.926269 1.469945 -2.439117
C    2.896830 0.089344 -2.785986
C    1.496368 0.432997 -0.961480
C    1.777270 2.864656 -0.639914
C    2.137422 -0.618649 -1.822528
N    2.065210 1.606365 -1.275526
O    0.617954 0.282708 -0.100667
O    3.456774 2.456448 -2.930506
H    3.418939 -0.320472 -3.646752
H    2.591366 3.554470 -0.892211
H    1.574863 -1.535004 -2.016677
H    1.718260 2.728608 0.448383
