          85
 
O       2.2162626     -1.6214207      1.6210943
C       2.5131972     -2.0393669      0.5237263
O       2.0977718     -3.2200161      0.0670827
C       1.2319104     -3.9854824      0.9090980
C       0.8558073     -5.2390992      0.1556811
C       3.3224685     -1.3209018     -0.5145941
N       4.0553878     -0.2412300     -0.0141452
C       4.9632406      0.2166536     -0.7926099
C       5.6037142      1.5214512     -0.5556444
C       5.1926194      2.3356568      0.5111091
C       5.7954818      3.5720274      0.7212296
C       6.8081461      4.0138469     -0.1367182
C       7.2094313      3.2160430     -1.2090151
C       6.6051214      1.9771632     -1.4206126
H       1.7605837     -4.2155872      1.8466035
H       0.3487542     -3.3739046      1.1445275
H       0.1563412     -5.8410485      0.7514795
H       1.7451140     -5.8467518     -0.0594208
H       0.3750848     -4.9764244     -0.7967826
H      -0.3377671     -0.9594926     -0.2648940
H       3.8811764     -2.0529229     -1.1298831
H       5.3113388     -0.3439796     -1.6761832
H       4.3943350      1.9705751      1.1603687
H       5.4812315      4.2016064      1.5563910
H       7.2833308      4.9818218      0.0308232
H       7.9966750      3.5622845     -1.8806598
H       6.9125306      1.3539838     -2.2644493
H      -2.4383704     -2.3862608      4.4924760
C      -2.0408423     -1.6942110      3.7571751
H      -3.6979329     -0.4541745      2.9128702
H       0.0090446     -3.5314111      4.0230575
C      -2.6563363     -0.7519963      2.9921519
H       0.4939331     -2.1741631      5.0912721
C       0.3367673     -2.4863069      4.0524833
N      -0.6976430     -1.6546691      3.4443349
H      -7.3835332      0.3172115      0.3796286
H      -8.2015554     -2.0320547      0.1150718
C      -6.6687471     -0.4908986      0.2177334
C      -7.1325695     -1.8193905      0.0668522
N      -1.6701364     -0.1561811      2.2328582
H       1.2558438     -2.3624509      3.4712677
C      -0.4932175     -0.7207062      2.5192102
C      -5.3231620     -0.2048453      0.1569204
C      -6.2286883     -2.8363817     -0.1367449
H      -0.9559173      2.3919748      2.4050352
H      -4.9842680      0.8252450      0.2809493
H      -6.5719919     -3.8672165     -0.2451448
C      -1.8734347      0.8324245      1.2099503
C      -1.4180900      2.1477774      1.4482587
C      -4.3637128     -1.2334531     -0.0681456
C      -4.8354437     -2.5714868     -0.2086698
H       0.4594720     -0.4792995      2.0416980
C      -2.9569887     -0.9607862     -0.1379632
C      -3.8855947     -3.6140566     -0.4120097
C      -2.4729272      0.4390894      0.0326076
C      -1.5732612      3.0907956      0.4673685
H      -4.2420699     -4.6390868     -0.5312410
H      -1.2355062      4.1151684      0.6304209
C      -2.5479779     -3.3423547     -0.4565372
C      -2.0601035     -2.0073845     -0.3160097
C      -2.6209146      1.4168227     -1.0041447
C      -2.1636492      2.7489842     -0.7802400
O      -0.7300058     -1.8822975     -0.3584034
H      -1.8120276     -4.1333053     -0.6076966
C      -3.2071071      1.0963196     -2.2605677
C      -2.3018584      3.7138383     -1.8158145
H      -3.5573135      0.0780972     -2.4355398
H      -1.9475173      4.7312680     -1.6358044
C      -3.3265637      2.0504608     -3.2428270
C      -2.8685930      3.3733737     -3.0201845
H      -3.7758460      1.7871845     -4.2021625
H      -2.9676672      4.1189645     -3.8104209
H       0.8187801      3.2847986     -0.9980303
C       2.9292078      1.4566492     -2.4520696
C       2.9117260      0.0907584     -2.7758453
C       1.5029576      0.4353775     -0.9467794
C       1.7741006      2.8631528     -0.6461609
C       2.1971076     -0.6471709     -1.7461481
N       2.0579455      1.6017110     -1.2763038
O       0.6140028      0.2829102     -0.0940144
O       3.4526840      2.4599965     -2.9333604
H       3.4454986     -0.3328318     -3.6230422
H       2.5892040      3.5489996     -0.9067316
H       1.5594646     -1.5096900     -1.9997381
H       1.7173311      2.7326116      0.4433221
