85
Energy = 0.00 kcal/mol
O    1.079722 -0.082830 -2.477805
C    1.404010 -1.209784 -2.164826
O    1.679278 -2.153446 -3.077636
C    1.684420 -1.725314 -4.437723
C    2.054544 -2.911797 -5.295927
C    1.630477 -1.698883 -0.805423
N    1.254725 -0.900231 0.233315
C    1.403580 -1.416470 1.420794
C    1.216909 -0.675315 2.670935
C    1.382055 0.715594 2.746105
C    1.174002 1.385702 3.948683
C    0.822382 0.678870 5.099753
C    0.690063 -0.710809 5.044557
C    0.892163 -1.380890 3.840962
H    0.689320 -1.330540 -4.694903
H    2.405541 -0.900778 -4.538031
H    2.077093 -2.617867 -6.353762
H    1.322499 -3.722278 -5.173938
H    3.046854 -3.293020 -5.018287
H    0.646138 0.588933 -0.066934
H    1.557131 -2.787039 -0.689184
H    1.519672 -2.505094 1.523050
H    1.677923 1.261140 1.849359
H    1.295440 2.469692 3.990465
H    0.662347 1.207291 6.041281
H    0.427819 -1.271887 5.943356
H    0.786317 -2.467702 3.794314
H    -3.272021 4.213521 -2.396703
C    -2.716379 3.282975 -2.335381
H    -4.023406 1.677231 -1.498685
H    0.421727 3.909651 -3.450041
C    -3.085982 2.047411 -1.903701
H    -0.533926 5.083598 -2.493655
C    -0.584548 4.288078 -3.245422
N    -1.395735 3.190513 -2.733137
H    -6.119572 -0.212734 2.265638
H    -6.177790 1.833918 3.701924
C    -5.264322 0.465085 2.277557
C    -5.300146 1.624520 3.088826
N    -1.983442 1.227436 -2.053082
H    -1.029298 4.673445 -4.169785
C    -0.972667 1.945207 -2.548525
C    -4.161738 0.182709 1.503131
C    -4.227947 2.485850 3.089575
H    -1.852847 -0.902984 -3.631221
H    -4.153958 -0.716162 0.885108
H    -4.243552 3.392078 3.699312
C    -1.883713 -0.136039 -1.604859
C    -1.824329 -1.165390 -2.573126
C    -3.026840 1.044571 1.497351
C    -3.080131 2.225521 2.295017
H    0.029424 1.548913 -2.713418
C    -1.867744 0.782861 0.694746
C    -1.986322 3.136020 2.251970
C    -1.845089 -0.373600 -0.245783
C    -1.719939 -2.466648 -2.158147
H    -2.032297 4.043313 2.858129
H    -1.658201 -3.276444 -2.887167
C    -0.896279 2.880540 1.468999
C    -0.814383 1.693553 0.682731
C    -1.770289 -1.735418 0.194421
C    -1.697945 -2.782535 -0.769971
O    0.280773 1.549053 -0.071494
H    -0.046249 3.563537 1.429116
C    -1.728654 -2.069330 1.575711
C    -1.591829 -4.128635 -0.324037
H    -1.755975 -1.266303 2.314215
H    -1.533242 -4.923873 -1.069789
C    -1.631249 -3.380410 1.976629
C    -1.560808 -4.422124 1.018041
H    -1.598065 -3.622330 3.040138
H    -1.479284 -5.457983 1.350822
H    2.990744 2.280751 -0.132863
C    4.114980 -0.400733 1.253688
C    3.963883 -1.757113 0.778935
C    3.869855 -0.303614 -1.035829
C    3.976702 1.878849 0.149187
C    3.688652 -1.723218 -0.594157
N    3.960503 0.440213 0.114610
O    3.907543 0.142330 -2.167400
O    4.353732 0.053131 2.361501
H    4.112431 -2.623824 1.416725
H    4.735571 2.277730 -0.538748
H    3.880805 -2.521342 -1.311702
H    4.215093 2.180247 1.176725
