85
0 0 10.000000
O        1.0797220       -0.0828300       -2.4778050
C        1.4040100       -1.2097840       -2.1648260
O        1.6792780       -2.1534460       -3.0776360
C        1.6844200       -1.7253140       -4.4377230
C        2.0545440       -2.9117970       -5.2959270
C        1.6304770       -1.6988830       -0.8054230
N        1.2547250       -0.9002310        0.2333150
C        1.4035800       -1.4164700        1.4207940
C        1.2169090       -0.6753150        2.6709350
C        1.3820550        0.7155940        2.7461050
C        1.1740020        1.3857020        3.9486830
C        0.8223820        0.6788700        5.0997530
C        0.6900630       -0.7108090        5.0445570
C        0.8921630       -1.3808900        3.8409620
H        0.6893200       -1.3305400       -4.6949030
H        2.4055410       -0.9007780       -4.5380310
H        2.0770930       -2.6178670       -6.3537620
H        1.3224990       -3.7222780       -5.1739380
H        3.0468540       -3.2930200       -5.0182870
H        0.6461380        0.5889330       -0.0669340
H        1.5571310       -2.7870390       -0.6891840
H        1.5196720       -2.5050940        1.5230500
H        1.6779230        1.2611400        1.8493590
H        1.2954400        2.4696920        3.9904650
H        0.6623470        1.2072910        6.0412810
H        0.4278190       -1.2718870        5.9433560
H        0.7863170       -2.4677020        3.7943140
H       -3.2720210        4.2135210       -2.3967030
C       -2.7163790        3.2829750       -2.3353810
H       -4.0234060        1.6772310       -1.4986850
H        0.4217270        3.9096510       -3.4500410
C       -3.0859820        2.0474110       -1.9037010
H       -0.5339260        5.0835980       -2.4936550
C       -0.5845480        4.2880780       -3.2454220
N       -1.3957350        3.1905130       -2.7331370
H       -6.1195720       -0.2127340        2.2656380
H       -6.1777900        1.8339180        3.7019240
C       -5.2643220        0.4650850        2.2775570
C       -5.3001460        1.6245200        3.0888260
N       -1.9834420        1.2274360       -2.0530820
H       -1.0292980        4.6734450       -4.1697850
C       -0.9726670        1.9452070       -2.5485250
C       -4.1617380        0.1827090        1.5031310
C       -4.2279470        2.4858500        3.0895750
H       -1.8528470       -0.9029840       -3.6312210
H       -4.1539580       -0.7161620        0.8851080
H       -4.2435520        3.3920780        3.6993120
C       -1.8837130       -0.1360390       -1.6048590
C       -1.8243290       -1.1653900       -2.5731260
C       -3.0268400        1.0445710        1.4973510
C       -3.0801310        2.2255210        2.2950170
H        0.0294240        1.5489130       -2.7134180
C       -1.8677440        0.7828610        0.6947460
C       -1.9863220        3.1360200        2.2519700
C       -1.8450890       -0.3736000       -0.2457830
C       -1.7199390       -2.4666480       -2.1581470
H       -2.0322970        4.0433130        2.8581290
H       -1.6582010       -3.2764440       -2.8871670
C       -0.8962790        2.8805400        1.4689990
C       -0.8143830        1.6935530        0.6827310
C       -1.7702890       -1.7354180        0.1944210
C       -1.6979450       -2.7825350       -0.7699710
O        0.2807730        1.5490530       -0.0714940
H       -0.0462490        3.5635370        1.4291160
C       -1.7286540       -2.0693300        1.5757110
C       -1.5918290       -4.1286350       -0.3240370
H       -1.7559750       -1.2663030        2.3142150
H       -1.5332420       -4.9238730       -1.0697890
C       -1.6312490       -3.3804100        1.9766290
C       -1.5608080       -4.4221240        1.0180410
H       -1.5980650       -3.6223300        3.0401380
H       -1.4792840       -5.4579830        1.3508220
H        2.9907440        2.2807510       -0.1328630
C        4.1149800       -0.4007330        1.2536880
C        3.9638830       -1.7571130        0.7789350
C        3.8698550       -0.3036140       -1.0358290
C        3.9767020        1.8788490        0.1491870
C        3.6886520       -1.7232180       -0.5941570
N        3.9605030        0.4402130        0.1146100
O        3.9075430        0.1423300       -2.1674000
O        4.3537320        0.0531310        2.3615010
H        4.1124310       -2.6238240        1.4167250
H        4.7355710        2.2777300       -0.5387480
H        3.8808050       -2.5213420       -1.3117020
H        4.2150930        2.1802470        1.1767250
