85
0 0 10.000000
O        0.9440040       -2.5679450       -0.8726040
C        2.1451970       -2.7243670       -1.0109760
O        2.6505070       -3.6035030       -1.8864890
C        1.7207590       -4.2014380       -2.7906530
C        2.4881180       -5.1371210       -3.6947550
C        3.1915310       -1.9566790       -0.3376420
N        2.7900850       -0.9929300        0.5308550
C        3.7121420       -0.3734570        1.1959490
C        3.4411830        0.8377660        1.9785050
C        2.3295520        1.6510930        1.7009800
C        2.1294380        2.8333490        2.4075140
C        3.0228090        3.2198390        3.4101620
C        4.1324890        2.4211200        3.6896790
C        4.3447470        1.2466090        2.9703360
H        0.9442470       -4.7289740       -2.2170180
H        1.2342970       -3.3930830       -3.3576770
H        1.8040050       -5.6050920       -4.4149830
H        2.9751880       -5.9297750       -3.1101700
H        3.2595030       -4.5882780       -4.2521880
H        0.1649550       -0.7544940       -2.1725130
H        4.1473730       -2.4779550       -0.1930820
H        4.7361690       -0.7773800        1.2593320
H        1.6618190        1.3607830        0.8861950
H        1.2903630        3.4826150        2.1524160
H        2.8643760        4.1513550        3.9561740
H        4.8417860        2.7208020        4.4632560
H        5.2243720        0.6316750        3.1760400
H       -0.1911070       -1.4844080        4.6290620
C       -0.3382510       -1.0209110        3.6585870
H       -1.6794790        0.7483790        3.8724580
H        2.1042810       -2.4332240        2.7894520
C       -1.0615730        0.0702650        3.2921120
H        1.1290510       -3.0459230        1.4156750
C        1.0964420       -2.7034330        2.4534790
N        0.2317670       -1.5296540        2.5115250
H       -6.3676880       -0.9584710        2.0453660
H       -6.7281960       -3.2747420        1.1800800
C       -5.6567270       -1.3872030        1.3371850
C       -5.8624970       -2.7006410        0.8469740
N       -0.9182160        0.2004120        1.9227750
H        0.6704810       -3.4791820        3.0991120
C       -0.1186540       -0.7768670        1.4729690
C       -4.5717560       -0.6469370        0.9270470
C       -4.9710960       -3.2448300       -0.0479910
H       -0.7617280        2.7393840        2.5191820
H       -4.4234110        0.3655180        1.3081590
H       -5.1192960       -4.2556690       -0.4347010
C       -1.5126090        1.2432220        1.1411060
C       -1.3350050        2.5703270        1.6074500
C       -3.6306140       -1.1860730        0.0045880
C       -3.8399360       -2.5077390       -0.4897660
H        0.2445720       -0.9217150        0.4516710
C       -2.4879650       -0.4535710       -0.4362650
C       -2.9039680       -3.0531820       -1.4145790
C       -2.2485900        0.9469730        0.0122850
C       -1.8767050        3.6149970        0.9080720
H       -3.0686310       -4.0644640       -1.7924540
H       -1.7410980        4.6403680        1.2562240
C       -1.8108560       -2.3380310       -1.8245050
C       -1.5974440       -1.0202040       -1.3320480
C       -2.8065310        2.0380610       -0.7322610
C       -2.6152830        3.3778270       -0.2833530
O       -0.5497260       -0.2740150       -1.6990010
H       -1.0791010       -2.7624170       -2.5117340
C       -3.5596700        1.8163210       -1.9189970
C       -3.1734860        4.4502110       -1.0312720
H       -3.7086590        0.7937240       -2.2682540
H       -3.0180510        5.4712780       -0.6773760
C       -4.0882490        2.8733660       -2.6209840
C       -3.8933880        4.2047030       -2.1751870
H       -4.6602580        2.6880140       -3.5312780
H       -4.3179620        5.0332190       -2.7438800
H        1.2074020        2.0010420       -2.9055530
C        3.9389380        1.3823310       -1.1818110
C        4.7685330        0.2115700       -1.3137360
C        2.6961420       -0.2136970       -2.2760760
C        1.5684680        1.9717850       -1.8677060
C        4.0111180       -0.8111590       -1.8852160
N        2.6629940        1.0388000       -1.7466590
O        1.7962740       -0.7437810       -2.9260060
O        4.1575960        2.4987980       -0.7453550
H        5.8135290        0.1938270       -1.0179820
H        1.9496170        2.9573320       -1.5740130
H        4.3811060       -1.6726740       -2.4408350
H        0.7229780        1.6893250       -1.2235450
