85
0 0 10.000000
O        1.0562200        2.0704690        1.4316050
C        2.1847730        2.4065400        1.1167680
O        2.8898800        3.2971600        1.8296130
C        2.3230890        3.7075060        3.0717420
C        3.3104090        4.6234850        3.7563000
C        2.9672130        1.8737710        0.0047820
N        2.4021490        0.9008510       -0.7485690
C        3.0739420        0.4225600       -1.7587070
C        2.6297040       -0.7694070       -2.4862230
C        1.7656950       -1.7043570       -1.8916060
C        1.3397560       -2.8244560       -2.5974270
C        1.7849990       -3.0446190       -3.9037370
C        2.6717410       -2.1410440       -4.4917280
C        3.0938160       -1.0152330       -3.7867630
H        1.3651460        4.2159190        2.8813940
H        2.1200860        2.8055280        3.6691030
H        2.9017170        4.9629240        4.7173800
H        3.5173100        5.5047450        3.1336860
H        4.2561320        4.0974320        3.9450530
H        0.8122690        0.6176980       -0.5958600
H        3.7166400        2.5460520       -0.4262300
H        3.9270340        0.9768320       -2.1728590
H        1.4501160       -1.5488170       -0.8592570
H        0.6684150       -3.5417240       -2.1206400
H        1.4539730       -3.9262740       -4.4552970
H        3.0357360       -2.3142280       -5.5060700
H        3.7849800       -0.3073370       -4.2504780
H       -4.0268840        2.4480660        3.9550800
C       -3.6356030        2.2824840        2.9560880
H       -5.3158900        1.8323250        1.5560170
H       -1.3411880        1.8894170        4.4922710
C       -4.2665470        1.9905930        1.7858360
H       -1.3023960        3.6195560        4.0177320
C       -1.2254210        2.5876170        3.6557160
N       -2.2844060        2.3336570        2.6826070
H       -5.7902090       -2.6489010        1.9640240
H       -4.4192210       -3.6534170        3.7956830
C       -4.7183630       -2.4482220        2.0084040
C       -3.9418580       -3.0203110        3.0464410
N       -3.2841300        1.8761890        0.8216280
H       -0.2642360        2.4232300        3.1547680
C       -2.0912730        2.0878780        1.3917150
C       -4.1336140       -1.6492320        1.0530930
C       -2.5895650       -2.7755690        3.1036150
H       -4.7205450        3.1017040       -1.0613590
H       -4.7394270       -1.2210710        0.2514850
H       -1.9793790       -3.2095910        3.8990990
C       -3.4775820        1.4048110       -0.5213100
C       -4.2768430        2.1668880       -1.4063480
C       -2.7352310       -1.3804630        1.0855720
C       -1.9556480       -1.9543020        2.1336950
H       -1.1186420        2.0611260        0.8919550
C       -2.0943870       -0.5493860        0.1201860
C       -0.5627040       -1.6641610        2.1889820
C       -2.8844320        0.2116760       -0.8847800
C       -4.4666530        1.7174650       -2.6880710
H        0.0250260       -2.0793820        3.0109510
H       -5.0788540        2.2901470       -3.3866790
C        0.0378890       -0.8637210        1.2537090
C       -0.7303810       -0.3077310        0.1882000
C       -3.0490210       -0.2418710       -2.2292880
C       -3.8522240        0.5136510       -3.1339670
O       -0.1959670        0.5141140       -0.7086820
H        1.0897150       -0.5853430        1.3310210
C       -2.4172320       -1.4303600       -2.6884980
C       -4.0112110        0.0467360       -4.4681700
H       -1.7892660       -1.9919320       -1.9951400
H       -4.6300850        0.6254350       -5.1566650
C       -2.5816060       -1.8493250       -3.9866120
C       -3.3903840       -1.1065040       -4.8842790
H       -2.0835470       -2.7560930       -4.3331750
H       -3.5140410       -1.4535460       -5.9112250
H        2.1836650       -2.8556470        1.0406900
C        4.4995310       -1.3621220        0.0919490
C        5.0991790       -0.0469520       -0.0287600
C        3.6553190       -0.0588540        1.7943410
C        2.9416440       -2.4557750        1.7295050
C        4.5519700        0.7845450        0.9402020
N        3.5858480       -1.2900360        1.1777870
O        3.0706150        0.2512120        2.8158350
O        4.6861030       -2.3998360       -0.5164140
H        5.8960880        0.1702160       -0.7346730
H        2.4595950       -2.1579890        2.6691760
H        4.9905280        1.6856550        1.3668700
H        3.6812270       -3.2442000        1.9293070
