85
Energy = 0.00 kcal/mol # From:censo_8
O    1.079722 -0.082830 -2.477805
C    1.404010 -1.209784 -2.164826
O    1.679278 -2.153446 -3.077636
C    1.684420 -1.725314 -4.437723
C    2.054544 -2.911797 -5.295927
C    1.630477 -1.698883 -0.805423
N    1.254725 -0.900231 0.233315
C    1.403580 -1.416470 1.420794
C    1.216909 -0.675315 2.670935
C    1.382055 0.715594 2.746105
C    1.174002 1.385702 3.948683
C    0.822382 0.678870 5.099753
C    0.690063 -0.710809 5.044557
C    0.892163 -1.380890 3.840962
H    0.689320 -1.330540 -4.694903
H    2.405541 -0.900778 -4.538031
H    2.077093 -2.617867 -6.353762
H    1.322499 -3.722278 -5.173938
H    3.046854 -3.293020 -5.018287
H    0.646138 0.588933 -0.066934
H    1.557131 -2.787039 -0.689184
H    1.519672 -2.505094 1.523050
H    1.677923 1.261140 1.849359
H    1.295440 2.469692 3.990465
H    0.662347 1.207291 6.041281
H    0.427819 -1.271887 5.943356
H    0.786317 -2.467702 3.794314
H    -3.272021 4.213521 -2.396703
C    -2.716379 3.282975 -2.335381
H    -4.023406 1.677231 -1.498685
H    0.421727 3.909651 -3.450041
C    -3.085982 2.047411 -1.903701
H    -0.533926 5.083598 -2.493655
C    -0.584548 4.288078 -3.245422
N    -1.395735 3.190513 -2.733137
H    -6.119572 -0.212734 2.265638
H    -6.177790 1.833918 3.701924
C    -5.264322 0.465085 2.277557
C    -5.300146 1.624520 3.088826
N    -1.983442 1.227436 -2.053082
H    -1.029298 4.673445 -4.169785
C    -0.972667 1.945207 -2.548525
C    -4.161738 0.182709 1.503131
C    -4.227947 2.485850 3.089575
H    -1.852847 -0.902984 -3.631221
H    -4.153958 -0.716162 0.885108
H    -4.243552 3.392078 3.699312
C    -1.883713 -0.136039 -1.604859
C    -1.824329 -1.165390 -2.573126
C    -3.026840 1.044571 1.497351
C    -3.080131 2.225521 2.295017
H    0.029424 1.548913 -2.713418
C    -1.867744 0.782861 0.694746
C    -1.986322 3.136020 2.251970
C    -1.845089 -0.373600 -0.245783
C    -1.719939 -2.466648 -2.158147
H    -2.032297 4.043313 2.858129
H    -1.658201 -3.276444 -2.887167
C    -0.896279 2.880540 1.468999
C    -0.814383 1.693553 0.682731
C    -1.770289 -1.735418 0.194421
C    -1.697945 -2.782535 -0.769971
O    0.280773 1.549053 -0.071494
H    -0.046249 3.563537 1.429116
C    -1.728654 -2.069330 1.575711
C    -1.591829 -4.128635 -0.324037
H    -1.755975 -1.266303 2.314215
H    -1.533242 -4.923873 -1.069789
C    -1.631249 -3.380410 1.976629
C    -1.560808 -4.422124 1.018041
H    -1.598065 -3.622330 3.040138
H    -1.479284 -5.457983 1.350822
H    2.990744 2.280751 -0.132863
C    4.114980 -0.400733 1.253688
C    3.963883 -1.757113 0.778935
C    3.869855 -0.303614 -1.035829
C    3.976702 1.878849 0.149187
C    3.688652 -1.723218 -0.594157
N    3.960503 0.440213 0.114610
O    3.907543 0.142330 -2.167400
O    4.353732 0.053131 2.361501
H    4.112431 -2.623824 1.416725
H    4.735571 2.277730 -0.538748
H    3.880805 -2.521342 -1.311702
H    4.215093 2.180247 1.176725
85
Energy = 0.00 kcal/mol # From:censo_6
O    1.147411 0.751404 -2.385844
C    1.707466 -0.324770 -2.406973
O    2.260516 -0.820194 -3.524703
C    2.267808 0.041267 -4.661139
C    2.942192 -0.696024 -5.794258
C    1.954691 -1.200331 -1.262862
N    1.366782 -0.903035 -0.070186
C    1.582413 -1.771925 0.879596
C    1.205642 -1.580810 2.281764
C    1.034254 -0.307987 2.845527
C    0.632750 -0.172067 4.172045
C    0.427536 -1.301290 4.966747
C    0.641232 -2.573220 4.428663
C    1.032972 -2.708858 3.099833
H    1.232111 0.316025 -4.913012
H    2.801274 0.964850 -4.391060
H    2.971637 -0.063171 -6.691139
H    2.394556 -1.617870 -6.035200
H    3.972390 -0.963048 -5.521262
H    0.548685 0.538892 0.090416
H    2.124237 -2.252488 -1.521916
H    1.919257 -2.784096 0.612318
H    1.229165 0.571874 2.232374
H    0.487571 0.825182 4.591919
H    0.114416 -1.191326 6.006523
H    0.498976 -3.461066 5.047558
H    1.191798 -3.703094 2.674742
H    -3.768591 4.225856 -1.362144
C    -3.087268 3.396495 -1.523568
H    -4.165720 1.464371 -1.223753
H    -0.060253 4.718575 -2.276246
C    -3.284048 2.052299 -1.461951
H    -1.181716 5.450603 -1.087519
C    -1.111876 4.887023 -2.024732
N    -1.761205 3.592383 -1.859639
H    -6.153720 -1.507505 1.720714
H    -6.479607 0.041989 3.656577
C    -5.377262 -0.782551 1.970883
C    -5.564261 0.095709 3.065609
N    -2.073941 1.458197 -1.766536
H    -1.600924 5.441502 -2.833469
C    -1.167346 2.411670 -1.994118
C    -4.225478 -0.732641 1.218887
C    -4.590551 1.017457 3.371865
H    -1.555407 -0.108851 -3.852437
H    -4.098248 -1.417602 0.379296
H    -4.724165 1.710217 4.205843
C    -1.799588 0.047244 -1.703770
C    -1.548334 -0.652164 -2.906941
C    -3.190845 0.199144 1.521446
C    -3.394939 1.098039 2.609426
H    -0.116824 2.211865 -2.206986
C    -1.985489 0.281254 0.751467
C    -2.401523 2.080040 2.885595
C    -1.795638 -0.558653 -0.464069
C    -1.286568 -1.995666 -2.854056
H    -2.562029 2.772155 3.715063
H    -1.074406 -2.553082 -3.768119
C    -1.264365 2.156564 2.130902
C    -1.033357 1.250286 1.054297
C    -1.564600 -1.970907 -0.406112
C    -1.297737 -2.687065 -1.609343
O    0.098471 1.418480 0.360425
H    -0.491211 2.899136 2.335337
C    -1.556578 -2.674012 0.828771
C    -1.032045 -4.081739 -1.539920
H    -1.729457 -2.122144 1.754154
H    -0.821461 -4.620819 -2.465779
C    -1.306469 -4.025046 0.863303
C    -1.038733 -4.737337 -0.331820
H    -1.298612 -4.550030 1.819872
H    -0.833909 -5.808157 -0.288844
H    4.132542 2.909638 0.781628
C    4.001795 -0.297805 1.411207
C    4.167328 -1.386984 0.475931
C    3.836305 0.587772 -0.709394
C    3.429960 2.160471 1.174197
C    3.956518 -0.901399 -0.820864
N    3.712689 0.857510 0.631270
O    3.822310 1.419264 -1.597772
O    4.094713 -0.248074 2.627284
H    4.476442 -2.382209 0.782893
H    3.538003 2.089710 2.263584
H    4.352524 -1.326094 -1.743775
H    2.401482 2.463075 0.923682
85
Energy = 0.00 kcal/mol # From:censo_9
O    1.056220 2.070469 1.431605
C    2.184773 2.406540 1.116768
O    2.889880 3.297160 1.829613
C    2.323089 3.707506 3.071742
C    3.310409 4.623485 3.756300
C    2.967213 1.873771 0.004782
N    2.402149 0.900851 -0.748569
C    3.073942 0.422560 -1.758707
C    2.629704 -0.769407 -2.486223
C    1.765695 -1.704357 -1.891606
C    1.339756 -2.824456 -2.597427
C    1.784999 -3.044619 -3.903737
C    2.671741 -2.141044 -4.491728
C    3.093816 -1.015233 -3.786763
H    1.365146 4.215919 2.881394
H    2.120086 2.805528 3.669103
H    2.901717 4.962924 4.717380
H    3.517310 5.504745 3.133686
H    4.256132 4.097432 3.945053
H    0.812269 0.617698 -0.595860
H    3.716640 2.546052 -0.426230
H    3.927034 0.976832 -2.172859
H    1.450116 -1.548817 -0.859257
H    0.668415 -3.541724 -2.120640
H    1.453973 -3.926274 -4.455297
H    3.035736 -2.314228 -5.506070
H    3.784980 -0.307337 -4.250478
H    -4.026884 2.448066 3.955080
C    -3.635603 2.282484 2.956088
H    -5.315890 1.832325 1.556017
H    -1.341188 1.889417 4.492271
C    -4.266547 1.990593 1.785836
H    -1.302396 3.619556 4.017732
C    -1.225421 2.587617 3.655716
N    -2.284406 2.333657 2.682607
H    -5.790209 -2.648901 1.964024
H    -4.419221 -3.653417 3.795683
C    -4.718363 -2.448222 2.008404
C    -3.941858 -3.020311 3.046441
N    -3.284130 1.876189 0.821628
H    -0.264236 2.423230 3.154768
C    -2.091273 2.087878 1.391715
C    -4.133614 -1.649232 1.053093
C    -2.589565 -2.775569 3.103615
H    -4.720545 3.101704 -1.061359
H    -4.739427 -1.221071 0.251485
H    -1.979379 -3.209591 3.899099
C    -3.477582 1.404811 -0.521310
C    -4.276843 2.166888 -1.406348
C    -2.735231 -1.380463 1.085572
C    -1.955648 -1.954302 2.133695
H    -1.118642 2.061126 0.891955
C    -2.094387 -0.549386 0.120186
C    -0.562704 -1.664161 2.188982
C    -2.884432 0.211676 -0.884780
C    -4.466653 1.717465 -2.688071
H    0.025026 -2.079382 3.010951
H    -5.078854 2.290147 -3.386679
C    0.037889 -0.863721 1.253709
C    -0.730381 -0.307731 0.188200
C    -3.049021 -0.241871 -2.229288
C    -3.852224 0.513651 -3.133967
O    -0.195967 0.514114 -0.708682
H    1.089715 -0.585343 1.331021
C    -2.417232 -1.430360 -2.688498
C    -4.011211 0.046736 -4.468170
H    -1.789266 -1.991932 -1.995140
H    -4.630085 0.625435 -5.156665
C    -2.581606 -1.849325 -3.986612
C    -3.390384 -1.106504 -4.884279
H    -2.083547 -2.756093 -4.333175
H    -3.514041 -1.453546 -5.911225
H    2.183665 -2.855647 1.040690
C    4.499531 -1.362122 0.091949
C    5.099179 -0.046952 -0.028760
C    3.655319 -0.058854 1.794341
C    2.941644 -2.455775 1.729505
C    4.551970 0.784545 0.940202
N    3.585848 -1.290036 1.177787
O    3.070615 0.251212 2.815835
O    4.686103 -2.399836 -0.516414
H    5.896088 0.170216 -0.734673
H    2.459595 -2.157989 2.669176
H    4.990528 1.685655 1.366870
H    3.681227 -3.244200 1.929307
85
Energy = 0.00 kcal/mol # From:censo_3
O    0.944004 -2.567945 -0.872604
C    2.145197 -2.724367 -1.010976
O    2.650507 -3.603503 -1.886489
C    1.720759 -4.201438 -2.790653
C    2.488118 -5.137121 -3.694755
C    3.191531 -1.956679 -0.337642
N    2.790085 -0.992930 0.530855
C    3.712142 -0.373457 1.195949
C    3.441183 0.837766 1.978505
C    2.329552 1.651093 1.700980
C    2.129438 2.833349 2.407514
C    3.022809 3.219839 3.410162
C    4.132489 2.421120 3.689679
C    4.344747 1.246609 2.970336
H    0.944247 -4.728974 -2.217018
H    1.234297 -3.393083 -3.357677
H    1.804005 -5.605092 -4.414983
H    2.975188 -5.929775 -3.110170
H    3.259503 -4.588278 -4.252188
H    0.164955 -0.754494 -2.172513
H    4.147373 -2.477955 -0.193082
H    4.736169 -0.777380 1.259332
H    1.661819 1.360783 0.886195
H    1.290363 3.482615 2.152416
H    2.864376 4.151355 3.956174
H    4.841786 2.720802 4.463256
H    5.224372 0.631675 3.176040
H    -0.191107 -1.484408 4.629062
C    -0.338251 -1.020911 3.658587
H    -1.679479 0.748379 3.872458
H    2.104281 -2.433224 2.789452
C    -1.061573 0.070265 3.292112
H    1.129051 -3.045923 1.415675
C    1.096442 -2.703433 2.453479
N    0.231767 -1.529654 2.511525
H    -6.367688 -0.958471 2.045366
H    -6.728196 -3.274742 1.180080
C    -5.656727 -1.387203 1.337185
C    -5.862497 -2.700641 0.846974
N    -0.918216 0.200412 1.922775
H    0.670481 -3.479182 3.099112
C    -0.118654 -0.776867 1.472969
C    -4.571756 -0.646937 0.927047
C    -4.971096 -3.244830 -0.047991
H    -0.761728 2.739384 2.519182
H    -4.423411 0.365518 1.308159
H    -5.119296 -4.255669 -0.434701
C    -1.512609 1.243222 1.141106
C    -1.335005 2.570327 1.607450
C    -3.630614 -1.186073 0.004588
C    -3.839936 -2.507739 -0.489766
H    0.244572 -0.921715 0.451671
C    -2.487965 -0.453571 -0.436265
C    -2.903968 -3.053182 -1.414579
C    -2.248590 0.946973 0.012285
C    -1.876705 3.614997 0.908072
H    -3.068631 -4.064464 -1.792454
H    -1.741098 4.640368 1.256224
C    -1.810856 -2.338031 -1.824505
C    -1.597444 -1.020204 -1.332048
C    -2.806531 2.038061 -0.732261
C    -2.615283 3.377827 -0.283353
O    -0.549726 -0.274015 -1.699001
H    -1.079101 -2.762417 -2.511734
C    -3.559670 1.816321 -1.918997
C    -3.173486 4.450211 -1.031272
H    -3.708659 0.793724 -2.268254
H    -3.018051 5.471278 -0.677376
C    -4.088249 2.873366 -2.620984
C    -3.893388 4.204703 -2.175187
H    -4.660258 2.688014 -3.531278
H    -4.317962 5.033219 -2.743880
H    1.207402 2.001042 -2.905553
C    3.938938 1.382331 -1.181811
C    4.768533 0.211570 -1.313736
C    2.696142 -0.213697 -2.276076
C    1.568468 1.971785 -1.867706
C    4.011118 -0.811159 -1.885216
N    2.662994 1.038800 -1.746659
O    1.796274 -0.743781 -2.926006
O    4.157596 2.498798 -0.745355
H    5.813529 0.193827 -1.017982
H    1.949617 2.957332 -1.574013
H    4.381106 -1.672674 -2.440835
H    0.722978 1.689325 -1.223545
85
Energy = 0.00 kcal/mol # From:censo_1
O    0.730372 -2.801904 -0.143135
C    1.903542 -3.089128 -0.305189
O    2.294722 -4.296041 -0.748650
C    1.267798 -5.222001 -1.113858
C    0.829535 -5.000160 -2.547865
C    3.035894 -2.192927 -0.091835
N    2.769078 -0.966480 0.424873
C    3.780028 -0.215134 0.725822
C    3.636684 1.210057 1.038733
C    2.482496 1.925522 0.677372
C    2.407942 3.297734 0.899013
C    3.471748 3.977740 1.498335
C    4.622036 3.275435 1.860208
C    4.706328 1.905589 1.620431
H    1.711699 -6.216035 -0.976621
H    0.423609 -5.109122 -0.420125
H    1.668314 -5.168872 -3.237887
H    0.485483 -3.965606 -2.680717
H    0.017948 -5.694450 -2.807654
H    -0.175666 -1.337098 -1.745493
H    3.998473 -2.684335 0.103036
H    4.796400 -0.634228 0.805738
H    1.671868 1.391333 0.175054
H    1.525117 3.851400 0.575168
H    3.409399 5.054225 1.666108
H    5.462296 3.799960 2.318689
H    5.616341 1.360425 1.882988
H    0.409487 -0.274822 4.974546
C    0.144778 -0.057538 3.944494
H    -1.115399 1.782026 3.867816
H    1.183968 -2.695304 2.162940
C    -0.596210 0.947659 3.406452
H    1.100613 -2.573661 3.953282
C    1.377877 -2.056134 3.028745
N    0.545697 -0.864694 2.901435
H    -5.984292 -0.031708 3.254875
H    -6.509925 -2.470709 3.110051
C    -5.399791 -0.671904 2.591979
C    -5.699037 -2.054416 2.510762
N    -0.632168 0.726799 2.042074
H    2.434938 -1.766329 3.051937
C    0.076096 -0.374602 1.758022
C    -4.382271 -0.129068 1.841236
C    -4.967751 -2.865168 1.674361
H    -0.309384 3.320038 1.897151
H    -4.161834 0.938347 1.907693
H    -5.190142 -3.932114 1.600933
C    -1.304060 1.567155 1.097043
C    -1.018384 2.954261 1.153852
C    -3.605593 -0.945067 0.970403
C    -3.909221 -2.336410 0.888403
H    0.294325 -0.787391 0.768570
C    -2.535386 -0.421509 0.184372
C    -3.138764 -3.159459 0.017945
C    -2.202675 1.030568 0.198617
C    -1.618789 3.807165 0.266843
H    -3.377773 -4.223007 -0.045907
H    -1.398058 4.875641 0.294406
C    -2.110246 -2.642548 -0.722699
C    -1.800350 -1.256322 -0.639455
C    -2.828598 1.917044 -0.738040
C    -2.528018 3.310718 -0.707372
O    -0.802578 -0.699954 -1.337112
H    -1.500284 -3.274428 -1.368347
C    -3.751284 1.436751 -1.709021
C    -3.147630 4.176396 -1.649526
H    -3.985571 0.371768 -1.735411
H    -2.906402 5.240687 -1.619500
C    -4.335549 2.298632 -2.606272
C    -4.030015 3.682367 -2.579420
H    -5.038137 1.915934 -3.347816
H    -4.498714 4.353551 -3.300475
H    1.092392 1.161076 -3.642918
C    3.848143 0.618317 -2.083839
C    4.556559 -0.629558 -1.936739
C    2.327950 -1.074394 -2.416440
C    1.442559 1.242754 -2.602750
C    3.645898 -1.679351 -2.040802
N    2.476312 0.274105 -2.328801
O    1.293280 -1.658832 -2.729634
O    4.219617 1.778268 -2.069474
H    5.631435 -0.681620 -1.788153
H    1.881627 2.234926 -2.441622
H    3.858266 -2.708431 -2.331452
H    0.583588 1.097115 -1.932889
85
Energy = 0.00 kcal/mol # From:censo_4
O    0.407314 2.123187 1.181795
C    0.976057 2.559967 0.204736
O    1.246059 3.869306 0.064058
C    0.967223 4.684503 1.200699
C    1.408363 6.093532 0.881708
C    1.527738 1.783342 -0.905335
N    1.308464 0.441381 -0.946639
C    1.793298 -0.173877 -1.993139
C    1.852942 -1.627966 -2.154199
C    1.807681 -2.512072 -1.064913
C    1.832722 -3.889085 -1.272372
C    1.935983 -4.408452 -2.564304
C    2.030510 -3.536522 -3.651896
C    1.993419 -2.160471 -3.445500
H    -0.108941 4.634463 1.427054
H    1.506494 4.267304 2.063777
H    1.208090 6.753026 1.736631
H    0.867225 6.480769 0.007120
H    2.485192 6.120055 0.665469
H    0.675930 -0.271178 0.353633
H    1.638997 2.332960 -1.847642
H    2.042406 0.414217 -2.887845
H    1.767751 -2.109233 -0.053255
H    1.785670 -4.563745 -0.415254
H    1.958849 -5.488025 -2.722866
H    2.129005 -3.932943 -4.664258
H    2.050373 -1.478665 -4.297855
H    -4.212332 1.920956 4.183739
C    -3.511217 1.660481 3.397091
H    -4.425592 2.084010 1.405739
H    -1.692403 1.810070 5.568704
C    -3.614812 1.744206 2.043023
H    -0.710297 0.476802 4.889674
C    -1.724034 0.874847 4.998855
N    -2.264139 1.134883 3.669690
H    -6.081052 -2.487464 -0.960761
H    -5.976232 -4.630218 0.322461
C    -5.178367 -2.739623 -0.401694
C    -5.121092 -3.952963 0.325686
N    -2.426580 1.268380 1.520602
H    -2.355852 0.141609 5.512442
C    -1.625051 0.909559 2.526249
C    -4.106956 -1.875497 -0.412727
C    -3.984876 -4.269575 1.033437
H    -2.364164 3.336784 -0.081497
H    -4.165779 -0.944807 -0.979778
H    -3.925384 -5.200174 1.602252
C    -2.122227 1.190064 0.120110
C    -2.163867 2.404256 -0.610841
C    -2.916366 -2.176848 0.308364
C    -2.865235 -3.396207 1.044975
H    -0.605351 0.542375 2.398860
C    -1.790112 -1.289785 0.322442
C    -1.687937 -3.701780 1.786667
C    -1.840346 -0.025179 -0.466274
C    -1.919345 2.389125 -1.956726
H    -1.646599 -4.636961 2.349100
H    -1.928646 3.318463 -2.528907
C    -0.625933 -2.842077 1.796631
C    -0.658217 -1.618947 1.059649
C    -1.626491 -0.052378 -1.885995
C    -1.656203 1.162595 -2.629895
O    0.410404 -0.826565 1.186984
H    0.282421 -3.062298 2.359769
C    -1.381128 -1.269543 -2.576109
C    -1.422302 1.126938 -4.030298
H    -1.332201 -2.201653 -2.011106
H    -1.435362 2.066054 -4.587159
C    -1.180809 -1.276554 -3.936666
C    -1.192974 -0.067664 -4.672215
H    -0.985662 -2.220131 -4.448013
H    -1.018307 -0.086976 -5.749076
H    4.306766 -0.551814 2.730134
C    4.271462 -0.369201 -0.517704
C    4.156314 0.820134 -1.333850
C    3.500099 1.323687 0.840132
C    3.705974 -0.925051 1.887883
C    3.591554 1.840015 -0.563260
N    3.772420 -0.021431 0.768309
O    3.226555 1.931524 1.858200
O    4.713325 -1.479451 -0.762386
H    4.537615 0.871965 -2.349777
H    4.104952 -1.889813 1.550804
H    3.699238 2.912979 -0.721503
H    2.662853 -1.050511 2.213130
85
Energy = 0.00 kcal/mol # From:censo_5
O    0.534663 -2.466918 -0.121257
C    1.539674 -2.623577 -0.796983
O    1.587205 -3.528328 -1.790333
C    0.386838 -4.253851 -2.061405
C    0.673803 -5.214549 -3.191883
C    2.784236 -1.878022 -0.715904
N    2.973796 -0.945201 0.243022
C    4.153439 -0.405091 0.314892
C    4.434291 0.772744 1.136263
C    3.429276 1.410183 1.883915
C    3.709087 2.548962 2.631848
C    5.001385 3.084111 2.641194
C    6.004599 2.470139 1.889770
C    5.723101 1.327959 1.142363
H    0.072773 -4.779616 -1.146600
H    -0.402184 -3.533156 -2.319591
H    -0.228097 -5.794903 -3.428370
H    1.475730 -5.912498 -2.914424
H    0.982184 -4.668929 -4.094439
H    -0.894869 -0.795572 -1.905766
H    3.642455 -2.362335 -1.197200
H    5.005120 -0.832926 -0.237794
H    2.420445 0.998910 1.846218
H    2.914570 3.030418 3.206197
H    5.221416 3.979932 3.224154
H    7.013165 2.887424 1.881978
H    6.508428 0.858054 0.545845
H    0.356677 0.864736 4.464967
C    0.055226 0.820068 3.423066
H    -1.206388 2.595378 2.940021
H    2.291814 -1.008892 3.107434
C    -0.702491 1.670286 2.676768
H    1.232303 -2.072667 2.131767
C    1.261998 -1.359088 2.961397
N    0.415319 -0.225866 2.598480
H    -4.733688 0.708695 3.939068
H    -5.179003 -1.663190 4.598660
C    -4.410408 -0.105184 3.287835
C    -4.669042 -1.445535 3.659180
N    -0.787338 1.120421 1.409831
H    0.874661 -1.808619 3.882490
C    -0.088430 -0.021974 1.386683
C    -3.763623 0.185675 2.107751
C    -4.285597 -2.466561 2.821714
H    -0.712642 3.634279 0.632165
H    -3.596940 1.228221 1.833291
H    -4.491213 -3.507078 3.083116
C    -1.534313 1.650779 0.308941
C    -1.373642 3.024852 0.014443
C    -3.329437 -0.849283 1.230626
C    -3.619195 -2.196599 1.597467
H    0.072681 -0.682090 0.531019
C    -2.634953 -0.585585 -0.000510
C    -3.250884 -3.247653 0.710358
C    -2.373428 0.823346 -0.414067
C    -2.019666 3.564236 -1.065655
H    -3.490385 -4.276963 0.985110
H    -1.889508 4.618428 -1.316104
C    -2.602205 -2.978903 -0.461104
C    -2.262616 -1.643014 -0.817874
C    -3.050665 1.382996 -1.548756
C    -2.853008 2.755831 -1.884145
O    -1.609184 -1.473986 -1.981787
H    -2.308147 -3.776935 -1.141954
C    -3.934276 0.609855 -2.355048
C    -3.509088 3.300176 -3.022760
H    -4.112644 -0.433541 -2.097747
H    -3.340469 4.350038 -3.270026
C    -4.555326 1.163933 -3.448298
C    -4.336272 2.521295 -3.793490
H    -5.224494 0.554193 -4.056962
H    -4.831971 2.944721 -4.668152
H    1.307071 2.304009 0.155746
C    3.697088 1.380415 -1.898451
C    3.816556 0.104887 -2.567616
C    1.630577 0.372312 -1.836940
C    1.788891 2.612204 -0.782926
C    2.609964 -0.564899 -2.481041
N    2.334391 1.470015 -1.463758
O    0.423152 0.232434 -1.642744
O    4.486170 2.290573 -1.727609
H    4.738281 -0.229946 -3.035753
H    1.047089 3.131573 -1.407180
H    2.262767 -1.392021 -3.099273
H    2.625206 3.283576 -0.553301
85
Energy = 0.00 kcal/mol # From:censo_10
O    2.170813 -1.614042 1.614403
C    2.510626 -2.047033 0.527203
O    2.066849 -3.225739 0.060356
C    1.204584 -3.982985 0.904720
C    0.784143 -5.210812 0.130851
C    3.388063 -1.392230 -0.438828
N    4.063111 -0.290104 -0.044897
C    4.942126 0.205611 -0.856691
C    5.550569 1.516388 -0.612038
C    5.198002 2.274254 0.517530
C    5.752030 3.532981 0.724710
C    6.663053 4.062723 -0.195492
C    7.010097 3.322310 -1.326090
C    6.455315 2.060071 -1.534254
H    1.748275 -4.249382 1.825314
H    0.338565 -3.363449 1.179177
H    0.088837 -5.818260 0.725997
H    1.656477 -5.826798 -0.127370
H    0.285279 -4.911285 -0.801664
H    -0.350463 -0.972786 -0.249263
H    3.800634 -2.057564 -1.208800
H    5.293136 -0.352134 -1.739840
H    4.475342 1.848812 1.216140
H    5.472468 4.110625 1.608190
H    7.095451 5.051400 -0.031954
H    7.713138 3.733237 -2.052944
H    6.716480 1.487258 -2.427315
H    -2.409065 -2.416911 4.484057
C    -2.018086 -1.715190 3.753975
H    -3.696678 -0.528629 2.875539
H    0.064435 -3.481351 4.102121
C    -2.647813 -0.792317 2.976677
H    0.542287 -2.082990 5.119583
C    0.380151 -2.432044 4.092931
N    -0.670794 -1.633745 3.467129
H    -7.387801 0.359009 0.313772
H    -8.216010 -1.990623 0.096646
C    -6.675374 -0.454999 0.169865
C    -7.146050 -1.784296 0.047781
N    -1.665944 -0.165051 2.236882
H    1.289838 -2.316474 3.494566
C    -0.477327 -0.695081 2.544936
C    -5.328258 -0.175909 0.108390
C    -6.246499 -2.810027 -0.126554
H    -0.935406 2.372204 2.413553
H    -4.985277 0.855738 0.203492
H    -6.591025 -3.842556 -0.217745
C    -1.867616 0.825211 1.215973
C    -1.391010 2.134147 1.451751
C    -4.372640 -1.215484 -0.079723
C    -4.851593 -2.553515 -0.190177
H    0.477288 -0.439609 2.077030
C    -2.962653 -0.955224 -0.136409
C    -3.907458 -3.607769 -0.349365
C    -2.462782 0.438532 0.034108
C    -1.509126 3.073790 0.462884
H    -4.270468 -4.634172 -0.433640
H    -1.149859 4.091892 0.623436
C    -2.567701 -3.345742 -0.392781
C    -2.072532 -2.010958 -0.286006
C    -2.573813 1.412092 -1.009868
C    -2.087569 2.734971 -0.791167
O    -0.741458 -1.893320 -0.324894
H    -1.835441 -4.144800 -0.511273
C    -3.142864 1.089287 -2.273362
C    -2.187378 3.691979 -1.838355
H    -3.509480 0.076176 -2.445436
H    -1.811178 4.701860 -1.662322
C    -3.223681 2.035903 -3.266561
C    -2.742745 3.351387 -3.047732
H    -3.657932 1.774251 -4.232573
H    -2.812537 4.091423 -3.846157
H    1.013195 3.420528 -0.893000
C    2.938989 1.539685 -2.367529
C    2.859696 0.165779 -2.799061
C    1.483852 0.461856 -0.961047
C    1.877161 2.867907 -0.491191
C    2.060928 -0.540690 -1.907284
N    2.095974 1.639689 -1.208945
O    0.613495 0.289807 -0.100677
O    3.506874 2.516537 -2.822402
H    3.371543 -0.206194 -3.682402
H    2.779823 3.483129 -0.592686
H    1.538441 -1.481343 -2.083126
H    1.690617 2.639080 0.565884
85
Energy = 0.00 kcal/mol # From:censo_2
O    0.683829 -1.541115 0.748215
C    1.483081 -0.972451 1.461505
O    1.833579 -1.452434 2.668017
C    1.291194 -2.723627 3.013791
C    1.874466 -3.132802 4.345878
C    2.233918 0.234629 1.119577
N    1.865390 0.901100 -0.010716
C    2.518092 2.003219 -0.245226
C    2.439550 2.764236 -1.493497
C    1.933690 2.209080 -2.678898
C    1.850175 2.980258 -3.834568
C    2.285841 4.308339 -3.834995
C    2.821728 4.858212 -2.668702
C    2.902921 4.087590 -1.510881
H    0.192230 -2.646305 3.059439
H    1.538825 -3.438512 2.215362
H    1.473471 -4.109324 4.648695
H    1.624045 -2.395846 5.121730
H    2.968191 -3.210175 4.278443
H    0.590704 0.148162 -0.955086
H    2.619276 0.801215 1.976942
H    3.079874 2.483676 0.569402
H    1.596506 1.172394 -2.680911
H    1.448628 2.540130 -4.749625
H    2.219839 4.907901 -4.744826
H    3.177445 5.890285 -2.662740
H    3.314460 4.519322 -0.594726
H    -3.050685 -4.489961 1.203745
C    -2.893745 -3.469020 1.537522
H    -1.183023 -2.557834 0.415000
H    -5.124981 -2.886401 4.017831
C    -1.990262 -2.531509 1.138584
H    -4.423151 -4.494320 3.659212
C    -4.768432 -3.550017 3.224285
N    -3.657230 -2.902745 2.537327
H    -6.442592 -0.115876 0.891916
H    -7.240390 -1.520980 -1.019863
C    -5.735526 -0.445470 0.128307
C    -6.190538 -1.231794 -0.956152
N    -2.221650 -1.406765 1.907702
H    -5.575804 -3.740372 2.507695
C    -3.238524 -1.659788 2.738879
C    -4.412404 -0.073315 0.221082
C    -5.301802 -1.607902 -1.936952
H    -1.131098 -0.100932 3.915692
H    -4.089727 0.561656 1.048458
H    -5.636396 -2.197295 -2.793748
C    -1.606248 -0.111018 1.798265
C    -1.100776 0.466820 2.984270
C    -3.459154 -0.476785 -0.758236
C    -3.933479 -1.240462 -1.864241
H    -3.663736 -0.952160 3.447236
C    -2.065652 -0.141157 -0.657192
C    -3.008476 -1.613042 -2.881824
C    -1.559930 0.529588 0.571169
C    -0.551460 1.723906 2.940038
H    -3.365382 -2.195196 -3.734202
H    -0.142434 2.176787 3.844909
C    -1.697156 -1.245612 -2.799137
C    -1.192751 -0.503575 -1.683232
C    -1.018228 1.853215 0.530069
C    -0.505671 2.448438 1.721032
O    0.101234 -0.230412 -1.750363
H    -0.978769 -1.518172 -3.573295
C    -0.978769 2.601853 -0.679983
C    0.046924 3.758097 1.661426
H    -1.364553 2.152464 -1.595595
H    0.446237 4.199062 2.577160
C    -0.450265 3.868218 -0.702957
C    0.073044 4.453059 0.477594
H    -0.403574 4.419792 -1.643926
H    0.503502 5.454946 0.437524
H    3.627666 -2.421258 -3.016978
C    4.503184 0.343315 -1.524920
C    4.748243 0.556073 -0.117698
C    3.614470 -1.456477 -0.393750
C    3.232537 -1.408896 -2.847980
C    4.109806 -0.458154 0.608797
N    3.738524 -0.854735 -1.619851
O    3.166517 -2.571154 -0.197441
O    4.850260 0.966473 -2.515863
H    5.375796 1.361033 0.254183
H    3.555906 -0.747812 -3.661365
H    4.387518 -0.813703 1.601815
H    2.133357 -1.450175 -2.817946
85
Energy = 0.00 kcal/mol # From:censo_7
O    0.494532 2.588374 0.824339
C    1.014853 2.839583 -0.242586
O    1.224536 4.101834 -0.662603
C    0.911705 5.147063 0.259001
C    2.047796 5.352258 1.241756
C    1.551345 1.873867 -1.195166
N    1.262119 0.552818 -1.037966
C    1.684647 -0.226074 -1.994923
C    1.635620 -1.688583 -1.954398
C    1.624309 -2.401694 -0.747045
C    1.507324 -3.789319 -0.746295
C    1.437070 -4.490744 -1.951241
C    1.504641 -3.794691 -3.161376
C    1.609477 -2.406559 -3.160516
H    0.742851 6.037954 -0.359234
H    -0.021532 4.894721 0.780971
H    1.783678 6.132097 1.970045
H    2.959832 5.664368 0.712892
H    2.258443 4.410796 1.766640
H    0.606710 0.070311 0.433032
H    1.698285 2.265255 -2.208582
H    1.962311 0.216597 -2.962649
H    1.719450 -1.852425 0.188981
H    1.480523 -4.327374 0.203314
H    1.345654 -5.578277 -1.948800
H    1.470177 -4.337519 -4.107799
H    1.646375 -1.860070 -4.106252
H    -3.643822 0.100243 4.524648
C    -3.088306 0.476773 3.671438
H    -4.248691 0.117310 1.798222
H    -0.974648 0.281858 5.537771
C    -3.387410 0.490237 2.344873
H    -1.717225 1.905093 5.729079
C    -1.133501 1.257657 5.065161
N    -1.849424 1.073344 3.808521
H    -5.588933 -3.158451 -1.252712
H    -5.243304 -5.211282 0.133387
C    -4.709374 -3.236963 -0.611471
C    -4.517085 -4.398384 0.175291
N    -2.326121 1.100068 1.702650
H    -0.167151 1.724341 4.850024
C    -1.405701 1.437342 2.610194
C    -3.798222 -2.205839 -0.576251
C    -3.416871 -4.490062 0.995085
H    -2.538213 3.340139 0.280443
H    -3.960879 -1.318211 -1.189595
H    -3.259337 -5.374392 1.616687
C    -2.170665 1.204071 0.274920
C    -2.323256 2.468778 -0.338630
C    -2.639063 -2.279090 0.248959
C    -2.463305 -3.439741 1.058663
H    -0.444563 1.889148 2.363015
C    -1.676982 -1.220074 0.312960
C    -1.344599 -3.505185 1.936931
C    -1.885842 0.053501 -0.431448
C    -2.181708 2.571506 -1.697144
H    -1.215365 -4.392563 2.560364
H    -2.282807 3.539584 -2.190881
C    -0.444260 -2.478519 1.998797
C    -0.592491 -1.322669 1.177340
C    -1.768245 0.148128 -1.855930
C    -1.908983 1.418858 -2.487005
O    0.332724 -0.365156 1.316250
H    0.423533 -2.517691 2.659560
C    -1.480772 -0.989389 -2.657685
C    -1.763912 1.511382 -3.898025
H    -1.335805 -1.956970 -2.173736
H    -1.868627 2.489289 -4.372263
C    -1.356212 -0.870209 -4.021393
C    -1.497350 0.391787 -4.649509
H    -1.128366 -1.751946 -4.622415
H    -1.388805 0.472490 -5.732151
H    4.293471 -0.228572 2.684242
C    4.196663 -0.354744 -0.545842
C    4.140264 0.754315 -1.472220
C    3.492004 1.492336 0.635861
C    3.629243 -0.637113 1.908160
C    3.612759 1.867117 -0.812627
N    3.710564 0.137712 0.697284
O    3.247930 2.203179 1.591973
O    4.589145 -1.502916 -0.676729
H    4.515361 0.686898 -2.489684
H    3.940204 -1.659954 1.661419
H    3.771395 2.913582 -1.075079
H    2.595111 -0.641680 2.282144
