          85
 
O      -1.9265720      1.8486392     -1.9321723
C      -3.1302701      1.7077057     -1.8068226
O      -3.9810433      2.7024009     -2.0437236
C      -3.4161932      3.9705964     -2.3938559
C      -4.5569903      4.9276260     -2.6441642
C      -3.8123182      0.4851032     -1.3246279
N      -2.9912618     -0.6207968     -1.2635852
C      -3.5476648     -1.7608672     -1.0499432
C      -2.7550710     -2.9435360     -0.6829715
C      -3.3979572     -4.1479700     -0.3700190
C      -2.6574333     -5.2727632     -0.0066026
C      -1.2651479     -5.2021649      0.0535675
C      -0.6178021     -3.9965515     -0.2398847
C      -1.3551150     -2.8729839     -0.5995188
H      -2.7662646      4.3027137     -1.5709233
H      -2.7838994      3.8449140     -3.2843766
H      -5.1913477      4.5637189     -3.4640057
H      -4.1632546      5.9142731     -2.9215552
H      -5.1758868      5.0388362     -1.7434865
H      -0.8189824      0.7164078     -1.2469585
H      -4.8280448      0.3721367     -1.7430337
H      -4.6346899     -1.9065952     -1.1520502
H      -4.4886656     -4.1974996     -0.4071213
H      -3.1697593     -6.2066158      0.2337412
H      -0.6838910     -6.0825814      0.3351665
H       0.4709512     -3.9337830     -0.1859405
H      -0.8620019     -1.9226341     -0.8174744
H       2.2399077      4.1443746      3.4933108
C       1.9551195      3.2267407      2.9879945
H       3.5005753      1.6590788      3.3587165
H      -1.0628185      3.7403906      1.5562869
C       2.5710462      2.0137877      2.9246055
H       0.2506040      4.9657156      1.3909674
C      -0.1830299      4.1887679      2.0310483
N       0.7999440      3.1288646      2.2420200
H       6.8916614      1.1385196     -0.2888418
H       6.8840563      2.8745756     -2.0871740
C       5.9501872      1.4200352     -0.7640228
C       5.9475749      2.4050197     -1.7827527
N       1.7755869      1.2044346      2.1362494
H      -0.4566507      4.6154091      3.0022365
C       0.7103934      1.9049732      1.7330115
C       4.7793114      0.8135311     -0.3694753
C       4.7631986      2.7629226     -2.3830688
H       1.8936017     -0.7855644      3.8624170
H       4.7960661      0.0541523      0.4146262
H       4.7429943      3.5208843     -3.1693690
C       2.0536621     -0.1606981      1.7894636
C       2.1006596     -1.1087151      2.8412746
C       3.5375975      1.1606312     -0.9763835
C       3.5381920      2.1553405     -1.9980338
H      -0.1226723      1.5432333      1.1227926
C       2.3028261      0.5498036     -0.5954307
C       2.3024168      2.5163931     -2.6040452
C       2.2855574     -0.4917682      0.4702563
C       2.4016299     -2.4140578      2.5551063
H       2.3030713      3.2835200     -3.3814540
H       2.4471379     -3.1569491      3.3527288
C       1.1258563      1.9247370     -2.2285889
C       1.1190851      0.9194071     -1.2166919
C       2.5820359     -1.8601806      0.1642933
C       2.6575330     -2.8199637      1.2163982
O      -0.0138529      0.3184496     -0.8282310
H       0.1770124      2.2100952     -2.6815136
C       2.8336943     -2.2836378     -1.1704036
C       2.9957308     -4.1659771      0.9058395
H       2.7692400     -1.5518171     -1.9764505
H       3.0542836     -4.8918010      1.7190888
C       3.1580895     -3.5923878     -1.4404223
C       3.2450480     -4.5425863     -0.3922230
H       3.3512993     -3.9033486     -2.4681085
H       3.5077027     -5.5758159     -0.6222554
H      -1.0526112     -0.0842191      2.9806385
C      -3.8958698     -1.1087406      1.7230157
C      -4.9094735     -0.3729042      1.0536461
C      -2.9557935      0.9031272      1.0793121
C      -1.4145007     -0.7133156      2.1499232
C      -4.3415569      0.8060896      0.4880250
N      -2.7038961     -0.2821183      1.6792179
O      -2.1696012      1.8424233      0.9850880
O      -3.8775605     -2.1909555      2.2978950
H      -5.9310234     -0.7281402      0.9499950
H      -0.6822985     -0.6939121      1.3272958
H      -4.8888904      1.7474683      0.3530176
H      -1.5304174     -1.7456715      2.5031543
