85
Energy = 0.00 kcal/mol
O    1.147411 0.751404 -2.385844
C    1.707466 -0.324770 -2.406973
O    2.260516 -0.820194 -3.524703
C    2.267808 0.041267 -4.661139
C    2.942192 -0.696024 -5.794258
C    1.954691 -1.200331 -1.262862
N    1.366782 -0.903035 -0.070186
C    1.582413 -1.771925 0.879596
C    1.205642 -1.580810 2.281764
C    1.034254 -0.307987 2.845527
C    0.632750 -0.172067 4.172045
C    0.427536 -1.301290 4.966747
C    0.641232 -2.573220 4.428663
C    1.032972 -2.708858 3.099833
H    1.232111 0.316025 -4.913012
H    2.801274 0.964850 -4.391060
H    2.971637 -0.063171 -6.691139
H    2.394556 -1.617870 -6.035200
H    3.972390 -0.963048 -5.521262
H    0.548685 0.538892 0.090416
H    2.124237 -2.252488 -1.521916
H    1.919257 -2.784096 0.612318
H    1.229165 0.571874 2.232374
H    0.487571 0.825182 4.591919
H    0.114416 -1.191326 6.006523
H    0.498976 -3.461066 5.047558
H    1.191798 -3.703094 2.674742
H    -3.768591 4.225856 -1.362144
C    -3.087268 3.396495 -1.523568
H    -4.165720 1.464371 -1.223753
H    -0.060253 4.718575 -2.276246
C    -3.284048 2.052299 -1.461951
H    -1.181716 5.450603 -1.087519
C    -1.111876 4.887023 -2.024732
N    -1.761205 3.592383 -1.859639
H    -6.153720 -1.507505 1.720714
H    -6.479607 0.041989 3.656577
C    -5.377262 -0.782551 1.970883
C    -5.564261 0.095709 3.065609
N    -2.073941 1.458197 -1.766536
H    -1.600924 5.441502 -2.833469
C    -1.167346 2.411670 -1.994118
C    -4.225478 -0.732641 1.218887
C    -4.590551 1.017457 3.371865
H    -1.555407 -0.108851 -3.852437
H    -4.098248 -1.417602 0.379296
H    -4.724165 1.710217 4.205843
C    -1.799588 0.047244 -1.703770
C    -1.548334 -0.652164 -2.906941
C    -3.190845 0.199144 1.521446
C    -3.394939 1.098039 2.609426
H    -0.116824 2.211865 -2.206986
C    -1.985489 0.281254 0.751467
C    -2.401523 2.080040 2.885595
C    -1.795638 -0.558653 -0.464069
C    -1.286568 -1.995666 -2.854056
H    -2.562029 2.772155 3.715063
H    -1.074406 -2.553082 -3.768119
C    -1.264365 2.156564 2.130902
C    -1.033357 1.250286 1.054297
C    -1.564600 -1.970907 -0.406112
C    -1.297737 -2.687065 -1.609343
O    0.098471 1.418480 0.360425
H    -0.491211 2.899136 2.335337
C    -1.556578 -2.674012 0.828771
C    -1.032045 -4.081739 -1.539920
H    -1.729457 -2.122144 1.754154
H    -0.821461 -4.620819 -2.465779
C    -1.306469 -4.025046 0.863303
C    -1.038733 -4.737337 -0.331820
H    -1.298612 -4.550030 1.819872
H    -0.833909 -5.808157 -0.288844
H    4.132542 2.909638 0.781628
C    4.001795 -0.297805 1.411207
C    4.167328 -1.386984 0.475931
C    3.836305 0.587772 -0.709394
C    3.429960 2.160471 1.174197
C    3.956518 -0.901399 -0.820864
N    3.712689 0.857510 0.631270
O    3.822310 1.419264 -1.597772
O    4.094713 -0.248074 2.627284
H    4.476442 -2.382209 0.782893
H    3.538003 2.089710 2.263584
H    4.352524 -1.326094 -1.743775
H    2.401482 2.463075 0.923682
