115
Energy = 0.00 kcal/mol # From:conf1
O    -1.959544 1.039626 -0.747570
C    -1.950853 1.871472 -1.635110
O    -3.074756 2.320763 -2.217635
C    -4.302230 1.874023 -1.641563
C    -5.427289 2.258774 -2.572492
C    -0.759884 2.525324 -2.177650
N    0.428981 2.070903 -1.722246
C    1.536343 2.537121 -2.203515
C    2.805124 2.255513 -1.524326
C    2.803670 1.787347 -0.197553
C    4.003081 1.552188 0.467212
C    5.223638 1.757759 -0.182945
C    5.233478 2.225784 -1.498613
C    4.033512 2.487697 -2.158864
H    -4.252887 0.785685 -1.486051
H    -4.402181 2.341110 -0.650813
H    -6.388904 1.936239 -2.148961
H    -5.300033 1.773752 -3.551098
H    -5.459812 3.346944 -2.722433
H    -1.042305 1.601517 1.296321
H    -0.859530 2.974299 -3.174917
H    1.569601 3.109939 -3.143848
H    1.844690 1.627917 0.303346
H    3.984614 1.208164 1.503548
H    6.163876 1.563968 0.337075
H    6.183241 2.396768 -2.009552
H    4.043582 2.869975 -3.182901
H    0.032727 -3.483085 -3.116219
C    0.340094 -2.817152 -2.315619
H    1.793459 -3.857857 -0.978893
C    1.195845 -3.001305 -1.275288
C    -1.128058 -0.937523 -3.107189
N    -0.137762 -1.526168 -2.216067
H    -0.079476 -6.054565 1.875556
H    -2.571431 -6.238466 1.952797
C    -0.688112 -5.148900 1.890224
C    -2.099557 -5.254806 1.937650
N    1.212330 -1.816892 -0.564204
C    0.389034 -0.937414 -1.143386
C    -0.074961 -3.916150 1.868482
C    -2.867015 -4.114416 1.977982
H    1.014919 -3.855742 1.844315
H    -3.956410 -4.178498 2.033546
C    1.949422 -1.575417 0.639906
C    3.370650 -1.707950 0.610884
C    -0.844160 -2.717320 1.879273
C    -2.262194 -2.828836 1.952614
H    0.192697 0.096782 -0.822175
C    -0.257087 -1.413060 1.807746
C    -3.036689 -1.642158 2.025487
C    1.231930 -1.304518 1.786195
C    4.045466 -1.558094 1.801195
H    -4.115280 -1.735906 2.172248
H    5.134092 -1.647326 1.814021
C    -2.477185 -0.386602 1.963025
C    -1.052538 -0.278100 1.794204
C    1.952867 -1.080105 3.003154
C    3.371314 -1.221918 3.005241
O    -0.443073 0.909057 1.659049
C    1.292633 -0.748937 4.218547
C    4.087681 -1.012023 4.216309
H    0.206501 -0.646911 4.220663
H    5.174293 -1.118030 4.207024
C    2.012167 -0.551042 5.373533
C    3.423967 -0.680778 5.373124
H    1.495216 -0.289363 6.297985
H    3.981227 -0.517634 6.297070
H    0.670918 4.475728 2.616221
C    1.344366 4.874890 -0.452999
C    0.431023 5.072488 -1.557080
C    -0.663300 3.922631 0.138619
C    1.134836 3.835543 1.849857
C    -0.775917 4.450119 -1.263329
N    0.622334 4.142761 0.538056
O    -1.524599 3.371299 0.810651
O    2.490027 5.246728 -0.269414
H    0.696185 5.647534 -2.440601
H    2.216006 4.018312 1.827715
H    -1.759442 4.688178 -1.669117
H    0.941277 2.784128 2.102792
H    -6.270110 -2.044859 -1.858051
C    -5.229173 -1.824463 -2.101002
C    -4.898785 -1.263841 -3.336385
H    -5.680643 -1.039728 -4.063987
C    -3.566545 -0.993700 -3.645749
H    -3.309597 -0.558509 -4.614911
C    -2.552782 -1.274562 -2.722816
C    -2.887077 -1.823658 -1.482937
H    -2.116781 -2.025196 -0.733228
C    -4.220218 -2.102984 -1.178990
H    -4.466843 -2.541193 -0.210144
H    -0.907945 -1.297632 -4.120541
H    -0.961079 0.147992 -3.103500
H    3.249702 -0.338383 -1.748517
C    3.923441 -1.197219 -1.789860
C    4.105773 -1.995320 -0.650853
C    5.008334 -3.065661 -0.706495
H    5.149897 -3.694686 0.175324
C    5.709180 -3.340208 -1.881573
H    6.403225 -4.181823 -1.914062
C    5.517661 -2.545581 -3.012183
H    6.063075 -2.761304 -3.932583
C    4.627113 -1.471123 -2.960400
H    4.484284 -0.834022 -3.835100
H    -3.503587 3.770580 3.821259
C    -3.825175 2.943142 3.186649
C    -5.093598 2.956284 2.607446
H    -5.770125 3.793877 2.786181
C    -5.491641 1.892936 1.794171
H    -6.479504 1.898665 1.328566
C    -4.622150 0.830709 1.559014
H    -4.921587 0.014516 0.896947
C    -3.345301 0.806112 2.139302
C    -2.959002 1.875666 2.959021
H    -1.970427 1.876922 3.421465
115
Energy = 0.00 kcal/mol # From:conf4
O    -2.033634 1.218631 -0.783347
C    -1.978520 2.191373 -1.516028
O    -3.062674 2.896500 -1.871831
C    -4.275826 2.597489 -1.174123
C    -4.976480 1.388567 -1.759700
C    -0.751741 2.788440 -2.049551
N    0.414315 2.236820 -1.641389
C    1.538024 2.703878 -2.086203
C    2.798153 2.375670 -1.411210
C    2.781559 1.857062 -0.103705
C    3.972153 1.621262 0.576189
C    5.200520 1.872487 -0.041155
C    5.226523 2.384944 -1.339952
C    4.034686 2.648997 -2.013766
H    -4.030779 2.451238 -0.113264
H    -4.889097 3.502188 -1.278815
H    -5.142054 1.525343 -2.838761
H    -5.953495 1.248049 -1.275070
H    -4.374784 0.482671 -1.600858
H    -1.194098 1.529176 1.233433
H    -0.836065 3.318323 -3.007704
H    1.589930 3.336761 -2.986731
H    1.816700 1.671648 0.376076
H    3.940323 1.246653 1.601250
H    6.133791 1.681013 0.491763
H    6.182429 2.591353 -1.825679
H    4.057521 3.071279 -3.021811
H    0.124264 -3.259389 -3.258913
C    0.404645 -2.626666 -2.422604
H    1.862239 -3.698410 -1.114158
C    1.247877 -2.843058 -1.377898
C    -1.130833 -0.757646 -3.113905
N    -0.107112 -1.354973 -2.265479
H    0.108360 -6.078831 1.775233
H    -2.370477 -6.390289 1.861237
C    -0.545292 -5.205224 1.797748
C    -1.949847 -5.383678 1.849207
N    1.222161 -1.696858 -0.606660
C    0.386878 -0.808809 -1.157068
C    0.005131 -3.943477 1.783475
C    -2.774454 -4.284966 1.894862
H    1.090317 -3.828465 1.758225
H    -3.859135 -4.404508 1.949384
C    1.925745 -1.497233 0.624206
C    3.348604 -1.613264 0.630449
C    -0.825148 -2.785512 1.802272
C    -2.234695 -2.969995 1.870832
H    0.156857 0.203386 -0.792092
C    -0.309415 -1.451264 1.746757
C    -3.068206 -1.825761 1.935774
C    1.174025 -1.278721 1.759875
C    3.986952 -1.490649 1.843893
H    -4.139536 -1.982641 2.077023
H    5.075762 -1.566916 1.885005
C    -2.582637 -0.537715 1.862899
C    -1.160168 -0.356090 1.724856
C    1.857475 -1.072317 3.001159
C    3.277280 -1.191642 3.036755
O    -0.590688 0.855663 1.616894
C    1.160879 -0.779174 4.206122
C    3.958980 -1.000772 4.270543
H    0.073650 -0.693297 4.183119
H    5.046840 -1.090832 4.287308
C    1.848256 -0.592430 5.382500
C    3.261024 -0.703857 5.416400
H    1.304689 -0.355469 6.298332
H    3.791852 -0.552676 6.357701
H    2.209222 3.802115 2.099015
C    1.440955 4.894690 -0.120675
C    0.573785 5.208037 -1.233230
C    -0.627724 4.009036 0.352405
C    1.117985 3.695200 2.090835
C    -0.673162 4.631913 -1.013763
N    0.654804 4.133164 0.798178
O    -1.534534 3.458686 0.963898
O    2.597450 5.193071 0.118938
H    0.891648 5.832453 -2.064120
H    0.843910 2.644654 2.259109
H    -1.632114 4.954418 -1.419121
H    0.685653 4.308750 2.896762
H    -6.097933 -2.652486 -2.132722
C    -5.093562 -2.271892 -2.325145
C    -4.769158 -1.745751 -3.576157
H    -5.519314 -1.710376 -4.367825
C    -3.480118 -1.273493 -3.821771
H    -3.225604 -0.872546 -4.805973
C    -2.507959 -1.309848 -2.817402
C    -2.839093 -1.826546 -1.560733
H    -2.100833 -1.848341 -0.753797
C    -4.124684 -2.312207 -1.321581
H    -4.366493 -2.726208 -0.340685
H    -0.851868 -0.945197 -4.158552
H    -1.088990 0.325277 -2.939941
H    3.249470 -0.211600 -1.716905
C    3.958354 -1.041796 -1.745482
C    4.130011 -1.852204 -0.613555
C    5.076398 -2.884885 -0.653991
H    5.210231 -3.524327 0.221431
C    5.831778 -3.109283 -1.805395
H    6.560424 -3.921497 -1.824854
C    5.651672 -2.301180 -2.928388
H    6.241042 -2.476652 -3.829986
C    4.716399 -1.264877 -2.892679
H    4.580677 -0.617787 -3.760962
H    -3.880688 3.658829 3.461047
C    -4.161254 2.758351 2.912229
C    -5.456468 2.612297 2.418080
H    -6.199151 3.394831 2.581781
C    -5.793796 1.459291 1.704975
H    -6.800859 1.339170 1.300621
C    -4.840655 0.468751 1.486863
H    -5.101248 -0.409103 0.891903
C    -3.537311 0.594717 1.997629
C    -3.212312 1.756149 2.712951
H    -2.209107 1.887740 3.118622
115
Energy = 0.00 kcal/mol # From:conf11
O    -0.339572 1.304193 -2.233669
C    -0.727467 2.380049 -1.806181
O    -2.008603 2.580264 -1.451984
C    -2.901435 1.482641 -1.632706
C    -4.311781 1.976324 -1.430886
C    0.090334 3.562802 -1.567264
N    1.376897 3.536497 -1.978108
C    2.093964 4.609217 -1.892596
C    3.545932 4.551957 -2.093086
C    4.174050 3.344378 -2.447981
C    5.555286 3.281821 -2.593689
C    6.338512 4.422678 -2.382252
C    5.725264 5.622816 -2.020004
C    4.339323 5.686760 -1.873508
H    -2.766398 1.078203 -2.646595
H    -2.649720 0.689773 -0.907242
H    -4.438599 2.381172 -0.417814
H    -5.012088 1.138402 -1.556947
H    -4.554823 2.758919 -2.163859
H    -0.320933 0.729390 1.017563
H    -0.462795 4.507545 -1.487097
H    1.648099 5.594074 -1.676359
H    3.550164 2.459435 -2.587681
H    6.029373 2.336494 -2.867273
H    7.423148 4.372795 -2.495314
H    6.330633 6.514358 -1.844769
H    3.861600 6.622225 -1.572980
H    -0.277216 -4.055394 -2.915980
C    -0.045070 -3.298374 -2.173554
H    1.410351 -4.116989 -0.686964
C    0.775684 -3.331340 -1.085361
C    -1.601094 -1.555478 -3.159311
N    -0.601634 -2.037140 -2.215706
H    -0.322635 -6.167757 2.772509
H    -2.791170 -6.491222 2.988239
C    -0.992324 -5.316095 2.641559
C    -2.391411 -5.500816 2.765827
N    0.682415 -2.091587 -0.487346
C    -0.154683 -1.328113 -1.183911
C    -0.468967 -4.073958 2.361105
C    -3.238358 -4.427878 2.613394
H    0.611838 -3.945188 2.274364
H    -4.318870 -4.552040 2.718512
C    1.380911 -1.639079 0.679232
C    2.776486 -1.383640 0.567925
C    -1.322769 -2.949306 2.180033
C    -2.727224 -3.134853 2.320164
H    -0.381086 -0.278957 -0.986197
C    -0.822770 -1.647193 1.865501
C    -3.579369 -2.007135 2.191327
C    0.651511 -1.421085 1.824251
C    3.443327 -1.001385 1.707493
H    -4.646269 -2.145565 2.381673
H    4.514752 -0.792671 1.659427
C    -3.109999 -0.754029 1.867205
C    -1.694406 -0.584513 1.652081
C    1.343900 -0.967351 2.992322
C    2.756001 -0.783388 2.931773
O    -1.293615 0.624158 1.248871
C    0.666622 -0.703896 4.214780
C    3.447030 -0.338443 4.092143
H    -0.413909 -0.847947 4.264999
H    4.527926 -0.193583 4.035127
C    1.362519 -0.273429 5.320343
C    2.766335 -0.088051 5.259632
H    0.832092 -0.070988 6.252125
H    3.304404 0.256287 6.144082
H    4.601171 2.892558 0.413808
C    2.498524 4.358428 0.925324
C    1.099422 4.702914 0.884702
C    1.327670 2.417055 0.576383
C    3.799898 2.199170 0.697807
C    0.364048 3.564981 0.581816
N    2.564389 2.938562 0.706038
O    1.081552 1.209045 0.474131
O    3.502422 5.011852 1.147210
H    0.734393 5.713552 1.047585
H    3.735491 1.385665 -0.036471
H    -0.695680 3.386672 0.769221
H    4.017805 1.772922 1.689619
H    -6.725736 -2.204971 -1.555094
C    -5.687594 -2.079954 -1.868036
C    -5.389967 -1.480336 -3.094960
H    -6.195050 -1.130753 -3.743302
C    -4.064505 -1.329616 -3.494097
H    -3.833529 -0.863668 -4.455453
C    -3.019012 -1.765132 -2.669065
C    -3.318965 -2.352619 -1.437616
H    -2.526321 -2.692402 -0.763596
C    -4.650949 -2.516839 -1.046891
H    -4.870284 -2.991743 -0.088815
H    -1.434113 -2.076360 -4.111402
H    -1.394855 -0.486430 -3.313432
H    2.139136 0.087843 -1.617477
C    2.986412 -0.585381 -1.791404
C    3.452751 -1.416087 -0.757020
C    4.576538 -2.221018 -0.974803
H    4.941596 -2.862250 -0.169462
C    5.221276 -2.211336 -2.212671
H    6.095191 -2.845078 -2.373257
C    4.748062 -1.396668 -3.241270
H    5.250275 -1.390979 -4.210371
C    3.632713 -0.583135 -3.026571
H    3.267250 0.066749 -3.824031
H    -4.407243 3.656532 2.731125
C    -4.681030 2.679555 2.328472
C    -5.977359 2.455642 1.859170
H    -6.718667 3.256233 1.887185
C    -6.313201 1.203117 1.345835
H    -7.317425 1.018140 0.960027
C    -5.362762 0.183906 1.311985
H    -5.630924 -0.786516 0.891062
C    -4.060679 0.389621 1.794602
C    -3.729486 1.661158 2.293600
H    -2.724672 1.845403 2.670934
115
Energy = 0.00 kcal/mol # From:conf10
O    -2.720818 1.220561 -0.431160
C    -2.715758 2.040670 -1.337445
O    -3.798669 2.735080 -1.699921
C    -4.930491 2.768543 -0.822505
C    -5.123034 4.193584 -0.348685
C    -1.544399 2.426342 -2.122262
N    -0.383774 1.782279 -1.836788
C    0.655585 2.060243 -2.558740
C    1.998593 1.651866 -2.136507
C    2.259229 1.378701 -0.782151
C    3.551840 1.078540 -0.364018
C    4.597670 1.015550 -1.288453
C    4.346193 1.278568 -2.636742
C    3.058362 1.610244 -3.055393
H    -5.795122 2.411273 -1.400505
H    -4.753543 2.085710 0.018451
H    -5.247744 4.872903 -1.204437
H    -4.242080 4.498622 0.234340
H    -6.015737 4.263468 0.288012
H    -1.531790 1.189552 0.929158
H    -1.750439 2.791912 -3.137281
H    0.561684 2.550448 -3.540683
H    1.437863 1.447451 -0.063381
H    3.746539 0.900788 0.695274
H    5.608736 0.771332 -0.956890
H    5.159904 1.235015 -3.363182
H    2.864748 1.845442 -4.105480
H    -1.066572 -3.890402 -2.466967
C    -0.599380 -3.170595 -1.801842
H    0.896457 -4.200874 -0.502668
C    0.357190 -3.322967 -0.845690
C    -1.863320 -1.199486 -2.750644
N    -0.939638 -1.834402 -1.813787
H    0.362460 -5.730975 3.742965
H    -2.028256 -6.001055 4.420580
C    -0.335703 -4.904442 3.600719
C    -1.690588 -5.059290 3.985297
N    0.580786 -2.071721 -0.305842
C    -0.219376 -1.182925 -0.904894
C    0.111620 -3.723049 3.053950
C    -2.571974 -4.019684 3.807850
H    1.160996 -3.625591 2.770619
H    -3.619602 -4.120665 4.100324
C    1.541278 -1.747858 0.707982
C    2.921129 -2.006919 0.445981
C    -0.780250 -2.629307 2.854073
C    -2.139755 -2.791183 3.237515
H    -0.270422 -0.099272 -0.722701
C    -0.372065 -1.386624 2.270555
C    -3.030459 -1.704509 3.057068
C    1.074224 -1.274607 1.915649
C    3.819530 -1.740801 1.454713
H    -4.053200 -1.818656 3.421622
H    4.882632 -1.927455 1.285782
C    -2.648217 -0.504871 2.494407
C    -1.280216 -0.360999 2.061777
C    2.026861 -0.921500 2.924698
C    3.410775 -1.165743 2.687758
O    -0.828711 0.763892 1.474447
C    1.626434 -0.372249 4.174239
C    4.355601 -0.831732 3.697557
H    0.565722 -0.194250 4.359099
H    5.414416 -1.017129 3.506189
C    2.563384 -0.056991 5.130271
C    3.941742 -0.286861 4.889539
H    2.246313 0.374185 6.080997
H    4.673713 -0.032087 5.657506
H    2.056393 3.602248 1.389625
C    1.119526 4.428747 -0.874507
C    0.151520 4.691432 -1.912984
C    -0.960240 3.972737 -0.000267
C    0.968219 3.625169 1.526329
C    -1.118842 4.337850 -1.450827
N    0.383791 3.943029 0.248217
O    -1.832044 3.724035 0.816311
O    2.328756 4.580541 -0.829485
H    0.422321 5.133334 -2.868338
H    0.612600 2.643736 1.871383
H    -2.071632 4.754343 -1.781353
H    0.713569 4.383839 2.282542
H    0.212014 -0.614507 -7.707810
C    -0.201097 -0.744362 -6.706267
C    0.604086 -0.537222 -5.584324
H    1.647761 -0.241005 -5.706381
C    0.076750 -0.701535 -4.304374
H    0.716330 -0.535272 -3.433966
C    -1.262639 -1.070037 -4.133092
C    -2.061014 -1.286775 -5.259194
H    -3.103485 -1.588000 -5.133255
C    -1.533273 -1.123127 -6.541045
H    -2.165575 -1.296180 -7.413449
H    -2.099417 -0.217108 -2.321348
H    -2.786344 -1.791728 -2.774894
H    2.491631 -0.994826 -2.051185
C    3.068083 -1.923293 -2.066542
C    3.385903 -2.557669 -0.856971
C    4.173236 -3.716121 -0.883361
H    4.420156 -4.218258 0.054821
C    4.626102 -4.236894 -2.096176
H    5.232304 -5.144201 -2.102347
C    4.298153 -3.604477 -3.295861
H    4.649930 -4.012441 -4.245010
C    3.521680 -2.443681 -3.276542
H    3.273886 -1.933630 -4.209637
H    -3.959082 3.944293 3.038579
C    -4.263919 2.918273 2.825438
C    -5.611606 2.604787 2.654124
H    -6.374011 3.380421 2.746985
C    -5.976119 1.293687 2.339752
H    -7.024590 1.039007 2.173706
C    -5.000419 0.305997 2.228554
H    -5.294644 -0.712562 1.967930
C    -3.643887 0.600984 2.446191
C    -3.287472 1.927896 2.724230
H    -2.241312 2.199912 2.861886
115
Energy = 0.00 kcal/mol # From:conf5
O    -2.291922 0.930827 -0.562522
C    -2.260846 1.741775 -1.477027
O    -3.360988 2.397795 -1.865531
C    -4.476390 2.295232 -0.974741
C    -5.565141 3.211019 -1.479945
C    -1.067163 2.185969 -2.192375
N    0.130397 1.702735 -1.777243
C    1.191304 2.082479 -2.419764
C    2.532945 1.914444 -1.853357
C    2.697401 1.647634 -0.483832
C    3.972657 1.563892 0.065214
C    5.102542 1.712369 -0.743321
C    4.946526 1.976224 -2.105439
C    3.670417 2.094596 -2.651907
H    -4.810037 1.247537 -0.927942
H    -4.128420 2.575414 0.030960
H    -5.882770 2.923069 -2.492058
H    -5.215397 4.252568 -1.504816
H    -6.435645 3.153726 -0.812046
H    -1.280425 1.580060 1.299950
H    -1.220529 2.514916 -3.229179
H    1.123440 2.533582 -3.424209
H    1.804385 1.523827 0.135720
H    4.088038 1.386292 1.136241
H    6.102032 1.639216 -0.309664
H    5.825256 2.104081 -2.740997
H    3.547064 2.323290 -3.713820
H    -0.847130 -4.140500 -2.196775
C    -0.448953 -3.336850 -1.585264
H    1.395056 -4.028347 -0.534826
C    0.643626 -3.283323 -0.778093
C    -2.272293 -1.729732 -2.238833
N    -1.067392 -2.105236 -1.504151
H    0.136106 -5.755626 3.367535
H    -2.300667 -5.978759 3.875314
C    -0.518544 -4.888629 3.263889
C    -1.899910 -5.016501 3.552898
N    0.670681 -2.013473 -0.233741
C    -0.372993 -1.313374 -0.688153
C    0.007017 -3.682132 2.861003
C    -2.727308 -3.925431 3.430459
H    1.075365 -3.599260 2.651749
H    -3.793161 -4.006462 3.655418
C    1.611256 -1.552349 0.743678
C    3.004185 -1.625619 0.437362
C    -0.827813 -2.536348 2.718483
C    -2.214740 -2.668495 3.008345
H    -0.600429 -0.262318 -0.467170
C    -0.333686 -1.266773 2.287852
C    -3.048685 -1.528985 2.882527
C    1.121154 -1.151128 1.970211
C    3.888659 -1.330387 1.450270
H    -4.101032 -1.632587 3.155624
H    4.961523 -1.361847 1.248365
C    -2.580381 -0.298847 2.471573
C    -1.182084 -0.177532 2.150865
C    2.053718 -0.778109 2.989229
C    3.449261 -0.900352 2.729377
O    -0.635577 0.969902 1.719058
C    1.627168 -0.333010 4.270520
C    4.377233 -0.562709 3.753431
H    0.558338 -0.243581 4.470431
H    5.444961 -0.653972 3.544006
C    2.547410 -0.016522 5.242015
C    3.936389 -0.130601 4.981423
H    2.208403 0.327636 6.220244
H    4.654904 0.126004 5.761321
H    0.876949 2.800456 1.892285
C    1.251760 4.592986 -0.876122
C    0.303898 4.698437 -1.959996
C    -0.770776 3.830320 -0.092160
C    1.103595 3.814555 1.534926
C    -0.920445 4.181051 -1.544423
N    0.539949 4.023406 0.225268
O    -1.629412 3.417993 0.678098
O    2.421513 4.920743 -0.782646
H    0.554502 5.154928 -2.913957
H    0.704869 4.542816 2.258560
H    -1.908495 4.436791 -1.927049
H    2.188730 3.945873 1.445401
H    -1.398739 -0.101175 -7.319765
C    -1.563873 -0.438306 -6.294925
C    -0.582095 -0.236795 -5.324231
H    0.353048 0.262382 -5.585496
C    -0.790982 -0.667199 -4.013706
H    -0.017670 -0.488311 -3.263171
C    -1.985515 -1.303458 -3.662378
C    -2.964237 -1.508429 -4.640240
H    -3.897010 -2.011561 -4.374424
C    -2.756401 -1.076082 -5.949801
H    -3.526851 -1.244308 -6.703723
H    -2.744285 -0.919024 -1.667894
H    -2.947282 -2.594468 -2.222851
H    2.098898 -0.675197 -1.954696
C    2.929580 -1.374985 -2.064228
C    3.502967 -1.957875 -0.923735
C    4.594343 -2.822786 -1.082931
H    5.040572 -3.293153 -0.203895
C    5.102933 -3.096723 -2.352315
H    5.950760 -3.775115 -2.460377
C    4.528276 -2.508466 -3.479874
H    4.927448 -2.721293 -4.473096
C    3.440504 -1.646211 -3.330877
H    2.991771 -1.171964 -4.206295
H    -3.782801 4.157039 3.222641
C    -4.093522 3.166315 2.886924
C    -5.410786 2.940680 2.491309
H    -6.140077 3.752374 2.518200
C    -5.788094 1.669203 2.051483
H    -6.813494 1.482865 1.725705
C    -4.851744 0.640691 2.006139
H    -5.147011 -0.341788 1.632731
C    -3.524716 0.850522 2.418889
C    -3.159077 2.130755 2.857219
H    -2.135701 2.328896 3.177838
115
Energy = 0.00 kcal/mol # From:conf8
O    -1.110351 1.869399 0.415407
C    -0.967309 3.078502 0.506844
O    -1.158129 3.753883 1.650038
C    -1.375113 3.015104 2.853037
C    -0.053612 2.534774 3.420848
C    -0.505830 3.989154 -0.542991
N    -0.501332 3.563151 -1.837932
C    -0.211806 4.466908 -2.719489
C    0.072270 4.141411 -4.120393
C    -0.062057 2.831099 -4.600268
C    0.266145 2.513689 -5.913906
C    0.737033 3.509769 -6.776137
C    0.874517 4.818349 -6.309225
C    0.546645 5.132049 -4.990519
H    -1.875473 3.716142 3.532627
H    -2.071715 2.188006 2.654312
H    0.560527 3.394903 3.724093
H    0.495854 1.953739 2.666882
H    -0.225495 1.894278 4.296820
H    -1.358926 0.564306 1.693414
H    -0.730975 5.042596 -0.327061
H    -0.207721 5.536231 -2.456365
H    -0.429237 2.066737 -3.918297
H    0.153844 1.484195 -6.263161
H    0.998710 3.264152 -7.807005
H    1.247525 5.598846 -6.975391
H    0.674053 6.152564 -4.621118
H    -1.732342 -2.560772 -1.901889
C    -1.022360 -2.196703 -1.165141
H    -0.515473 -3.830110 0.270502
C    -0.423014 -2.818860 -0.115255
C    -0.899256 0.107289 -2.189510
N    -0.544312 -0.898547 -1.186041
H    -1.224261 -6.907516 3.812714
H    -3.722889 -6.873427 3.784911
C    -1.749252 -5.973198 3.606392
C    -3.166414 -5.955862 3.588093
N    0.412502 -1.887846 0.471275
C    0.319668 -0.730579 -0.191118
C    -1.029440 -4.825243 3.366973
C    -3.831604 -4.784292 3.315438
H    0.061586 -4.854042 3.383564
H    -4.923079 -4.756986 3.287736
C    1.189611 -2.074401 1.660763
C    2.606087 -1.924394 1.587564
C    -1.690952 -3.592401 3.096120
C    -3.115849 -3.582847 3.058011
H    0.840493 0.204297 0.063161
C    -0.981962 -2.380854 2.830886
C    -3.789545 -2.371238 2.747146
C    0.508103 -2.326252 2.836535
C    3.313603 -2.048926 2.764679
H    -4.881983 -2.366434 2.723594
H    4.401703 -1.959907 2.748032
C    -3.106275 -1.213423 2.458547
C    -1.674282 -1.223213 2.500019
C    1.256353 -2.453720 4.049128
C    2.673803 -2.316244 4.002069
O    -0.947617 -0.119443 2.264297
C    0.629688 -2.680610 5.307106
C    3.424592 -2.438948 5.205142
H    -0.456648 -2.764709 5.353613
H    4.510452 -2.336655 5.156691
C    1.381243 -2.790610 6.452686
C    2.793969 -2.674658 6.402067
H    0.889023 -2.966125 7.410456
H    3.376551 -2.766246 7.320086
H    3.728839 1.575365 -2.725893
C    2.563876 4.049630 -2.181337
C    2.044743 4.966184 -1.205470
C    1.859547 2.797157 -0.378918
C    2.690486 1.538418 -2.367877
C    1.482349 4.231827 -0.148749
N    2.360249 2.735873 -1.644560
O    1.729957 1.852326 0.390118
O    3.126784 4.205853 -3.254381
H    2.097662 6.045660 -1.318313
H    2.027847 1.420922 -3.240157
H    1.364124 4.577797 0.879675
H    2.579931 0.678485 -1.690760
H    0.057682 -1.829850 -7.143794
C    -0.135929 -1.435915 -6.144759
C    0.865104 -1.476076 -5.170432
H    1.842757 -1.899611 -5.407199
C    0.616127 -0.977952 -3.893504
H    1.398500 -1.022201 -3.129995
C    -0.633468 -0.430197 -3.577285
C    -1.630186 -0.391985 -4.554887
H    -2.607677 0.032305 -4.313875
C    -1.382118 -0.891890 -5.835590
H    -2.168474 -0.858176 -6.591552
H    -0.337660 1.027437 -1.953589
H    -1.960799 0.361425 -2.065888
H    4.534290 -0.088697 1.186151
C    4.339432 -0.680207 0.289727
C    3.324140 -1.648056 0.311851
C    3.056791 -2.371279 -0.861650
H    2.283274 -3.142615 -0.865506
C    3.799447 -2.141008 -2.020332
H    3.586301 -2.720266 -2.920905
C    4.820051 -1.188854 -2.024380
H    5.399952 -1.010621 -2.931695
C    5.086141 -0.458253 -0.865973
H    5.870242 0.300788 -0.864656
H    -5.759192 2.443100 3.618028
C    -5.185977 1.932677 2.842170
C    -5.062332 2.503195 1.572517
H    -5.537391 3.461293 1.354898
C    -4.330976 1.845382 0.584077
H    -4.224075 2.286551 -0.408704
C    -3.715919 0.626121 0.868205
H    -3.130723 0.118558 0.097510
C    -3.817568 0.055754 2.142105
C    -4.565999 0.716986 3.126770
H    -4.644204 0.278546 4.124033
