85
CONF55
O 0.3703249100 1.6999707516 0.8458997326
C 0.9666537102 2.3214857105 -0.0362747782
O 1.0137588120 3.6751576571 -0.0548958964
C 0.4059005990 4.3541832045 1.0710194100
C 0.6267558232 5.8348297495 0.8768673861
C 1.7277541414 1.7493736259 -1.1311128663
N 1.6686181356 0.4046275330 -1.2827380776
C 2.2543295014 -0.1088707596 -2.3281014887
C 2.3701802398 -1.5460301055 -2.5114473105
C 1.9775715765 -2.4553630127 -1.5125257139
C 2.0904003709 -3.8227813279 -1.7208610451
C 2.6028080718 -4.3181621447 -2.9225376629
C 3.0050330951 -3.4259673688 -3.9153845723
C 2.8904661529 -2.0551020631 -3.7120323239
H -0.6620792345 4.1114828124 1.1002915996
H 0.8701123903 3.9904128853 1.9937916020
H 0.1804108257 6.3809278425 1.7140630929
H 0.1586117373 6.1837679150 -0.0488079561
H 1.6942925720 6.0724293700 0.8422492829
H 0.1746541341 -0.1088227196 0.7994673578
H 1.8859314268 2.4047442015 -1.9934415659
H 2.6035727954 0.5186018847 -3.1588352026
H 1.5783923904 -2.0678162576 -0.5802651453
H 1.7804057602 -4.5124115994 -0.9404244511
H 2.6923439227 -5.3887616614 -3.0795431646
H 3.4100598263 -3.8006440400 -4.8510296670
H 3.2060027324 -1.3617690858 -4.4879642953
H -4.9220735162 1.6430411335 4.2797475583
C -4.1605384835 1.5222456225 3.5256647187
H -5.0544058399 1.7714164139 1.5028641324
H -2.4792776251 2.0196892518 5.7643016128
C -4.2261737909 1.5904679311 2.1691447526
H -1.2637447799 0.8617360447 5.1553099693
C -2.3282198383 1.0892346939 5.2125879207
N -2.8489117184 1.2413761167 3.8540480488
H -6.6329658341 -1.9322707106 -0.3337755940
H -6.6686427575 -4.0211828249 1.0171750243
C -5.7303094047 -2.2610398484 0.1726899414
C -5.7518555892 -3.4458460053 0.9357781048
N -2.9500555617 1.3481485428 1.6938750814
H -2.8550164231 0.2719583907 5.7097760839
C -2.1311629205 1.1404332060 2.7356610748
C -4.5764371338 -1.5185978299 0.0576187824
C -4.6063859498 -3.8697738329 1.5697796176
H -2.9411894288 3.3872044382 0.0338221489
H -4.5750557338 -0.6122133354 -0.5396165124
H -4.6057175551 -4.7846703249 2.1566104093
C -2.5639266548 1.2808551488 0.3127730345
C -2.6130012480 2.4679763428 -0.4398256748
C -3.3811211058 -1.9227970251 0.7050429675
C -3.4049033370 -3.1312630677 1.4714232015
H -1.0685986691 0.9566623077 2.6701338335
C -2.1724317024 -1.1694434166 0.6071740360
C -2.2129980947 -3.5564944416 2.1089960337
C -2.1559530708 0.0707444596 -0.2094526378
C -2.2147707973 2.4435640488 -1.7510737606
H -2.2255076385 -4.4773895608 2.6854650592
H -2.2230496674 3.3542935291 -2.3423553931
C -1.0627566615 -2.8255564690 2.0062614243
C -1.0305473065 -1.6182212293 1.2602834609
C -1.7744651112 0.0306642463 -1.5827735028
C -1.7831648669 1.2374972537 -2.3526635669
O 0.1559934311 -0.9835480552 1.2635699814
H -0.1470152470 -3.1436862013 2.4947390773
C -1.3981691673 -1.1794241876 -2.2138075784
C -1.3688339152 1.1921639437 -3.7055612538
H -1.3994204397 -2.0973687066 -1.6352328544
H -1.3607382533 2.1148724229 -4.2788393417
C -1.0224213604 -1.1920527400 -3.5353377093
C -0.9930759436 0.0031618687 -4.2839495276
H -0.7302837366 -2.1263112872 -4.0048104736
H -0.6771787503 -0.0216120469 -5.3222346850
H 5.1984800240 -0.5867857225 2.3133943366
C 4.8228143236 -0.0037624374 -0.6943013769
C 4.5510174722 1.2271550228 -1.3924464931
C 3.7052025171 1.3993417438 0.7596362407
C 4.3572801077 -0.8397699264 1.6542935177
C 3.7816010247 2.0517709673 -0.5801054206
N 4.2022666321 0.1227474751 0.5878064889
O 3.3119101641 1.8715151224 1.8212662731
O 5.4830644085 -0.9917855663 -1.0123017977
H 4.9220274511 1.4299842515 -2.3873083524
H 4.5420620534 -1.8202704415 1.2088978535
H 3.7010502223 3.1292964321 -0.6510484968
H 3.4447862738 -0.8790800048 2.2551937747
