85
Energy = 0.00 kcal/mol
O    0.404721 1.672293 0.849204
C    0.969471 2.312573 -0.030304
O    0.996185 3.651791 -0.003642
C    0.435612 4.268267 1.151862
C    0.570450 5.764171 0.991584
C    1.727754 1.749374 -1.131113
N    1.677321 0.405966 -1.270324
C    2.266281 -0.116849 -2.295896
C    2.388316 -1.565961 -2.456660
C    1.971351 -2.441789 -1.440936
C    2.037556 -3.817574 -1.631639
C    2.535547 -4.345722 -2.828765
C    2.979250 -3.480515 -3.830164
C    2.908714 -2.100398 -3.641518
H    -0.618612 3.962773 1.247405
H    0.969338 3.896045 2.039045
H    0.136192 6.275996 1.860579
H    0.047045 6.104047 0.086998
H    1.627678 6.051328 0.910065
H    0.377253 -0.120036 0.737352
H    1.873073 2.403579 -2.000598
H    2.608537 0.504321 -3.139454
H    1.580920 -2.014843 -0.514430
H    1.698097 -4.486601 -0.837971
H    2.584108 -5.426431 -2.975694
H    3.380804 -3.880324 -4.763681
H    3.249959 -1.421324 -4.427027
H    -4.721754 1.537329 4.254631
C    -3.966851 1.470338 3.477877
H    -4.921602 1.743929 1.478863
H    -2.222414 1.976197 5.683108
C    -4.064646 1.576326 2.122972
H    -1.022469 0.824609 5.016124
C    -2.088336 1.054491 5.106189
N    -2.639545 1.234710 3.767756
H    -6.499500 -1.798289 -0.344880
H    -6.567231 -3.894570 1.014354
C    -5.597959 -2.142403 0.165937
C    -5.637018 -3.330917 0.933545
N    -2.792223 1.405545 1.620062
H    -2.606596 0.223487 5.596998
C    -1.947821 1.199555 2.633429
C    -4.431843 -1.419593 0.050596
C    -4.497843 -3.769550 1.568225
H    -2.819885 3.435454 -0.088031
H    -4.416521 -0.510202 -0.552236
H    -4.507579 -4.687641 2.160321
C    -2.414262 1.329881 0.237473
C    -2.458486 2.509857 -0.538274
C    -3.237022 -1.845278 0.698774
C    -3.281452 -3.045379 1.466197
H    -0.873664 1.052199 2.512913
C    -2.007241 -1.113348 0.590304
C    -2.091980 -3.493051 2.109372
C    -1.974096 0.118163 -0.251234
C    -2.015999 2.467799 -1.835500
H    -2.125422 -4.415709 2.692485
H    -2.018023 3.370907 -2.448240
C    -0.929639 -2.784404 2.001374
C    -0.870731 -1.577754 1.239839
C    -1.538656 0.062269 -1.611842
C    -1.538440 1.252437 -2.398022
O    0.320215 -0.972466 1.235783
H    -0.011548 -3.110726 2.491803
C    -1.103877 -1.155580 -2.200614
C    -1.065731 1.192882 -3.737045
H    -1.101514 -2.062735 -1.595104
H    -1.055888 2.110399 -4.329038
C    -0.669708 -1.185540 -3.502439
C    -0.639405 0.001903 -4.275054
H    -0.315689 -2.123582 -3.934089
H    -0.277046 -0.034772 -5.303536
H    4.590255 -0.791908 2.412463
C    4.698372 -0.060960 -0.710152
C    4.539486 1.213768 -1.384247
C    3.605202 1.359403 0.737278
C    3.952906 -0.969784 1.532467
C    3.781601 2.051771 -0.580105
N    4.076887 0.083000 0.559580
O    3.125165 1.793435 1.769629
O    5.264004 -1.088418 -1.045055
H    4.952886 1.413394 -2.368862
H    4.262738 -1.903085 1.046729
H    3.713227 3.137813 -0.630055
H    2.906423 -1.053441 1.856989
