          85
 
O       0.4047790      1.6678358      0.8663894
C       0.9526104      2.3041350     -0.0327293
O       0.9851246      3.6475502     -0.0041583
C       0.4364877      4.2648103      1.1542745
C       0.5710325      5.7610145      0.9916205
C       1.6640381      1.7422708     -1.1478931
N       1.6712925      0.4075139     -1.2776559
C       2.2688623     -0.1167659     -2.3014635
C       2.3924377     -1.5639604     -2.4574692
C       1.9728244     -2.4404282     -1.4418973
C       2.0377084     -3.8163035     -1.6318338
C       2.5354786     -4.3471032     -2.8280949
C       2.9802853     -3.4823907     -3.8295674
C       2.9121231     -2.1022398     -3.6419284
H      -0.6179539      3.9621302      1.2604376
H       0.9756019      3.8947655      2.0392338
H       0.1415581      6.2748124      1.8619205
H       0.0432957      6.0996980      0.0890178
H       1.6279450      6.0478763      0.9038862
H       0.3696863     -0.1002857      0.7632448
H       1.8805745      2.4080192     -1.9946639
H       2.6052196      0.5053012     -3.1471292
H       1.5798644     -2.0128205     -0.5166280
H       1.6960205     -4.4839461     -0.8377951
H       2.5822857     -5.4279663     -2.9743343
H       3.3808894     -3.8829596     -4.7632920
H       3.2536673     -1.4247211     -4.4287351
H      -4.7222652      1.5354602      4.2544583
C      -3.9672158      1.4695563      3.4777619
H      -4.9220326      1.7422511      1.4786900
H      -2.2228394      1.9764137      5.6832972
C      -4.0649423      1.5756717      2.1228713
H      -1.0223927      0.8256567      5.0158241
C      -2.0883716      1.0550016      5.1059730
N      -2.6396416      1.2352504      3.7676514
H      -6.4994284     -1.7983795     -0.3447883
H      -6.5669752     -3.8947407      1.0144664
C      -5.5978409     -2.1424628      0.1659899
C      -5.6368022     -3.3310223      0.9335600
N      -2.7923091      1.4064193      1.6199966
H      -2.6061299      0.2235791      5.5966298
C      -1.9477030      1.2013309      2.6333272
C      -4.4318068     -1.4195084      0.0507377
C      -4.4974486     -3.7696128      1.5679988
H      -2.8186002      3.4363760     -0.0882033
H      -4.4165690     -0.5099759     -0.5518805
H      -4.5070257     -4.6878184      2.1599483
C      -2.4146588      1.3305745      0.2372353
C      -2.4587957      2.5103113     -0.5387495
C      -3.2368036     -1.8449410      0.6989018
C      -3.2810903     -3.0453828      1.4658740
H      -0.8730231      1.0580714      2.5119256
C      -2.0074074     -1.1123943      0.5908520
C      -2.0912330     -3.4932078      2.1082619
C      -1.9747273      0.1187491     -0.2512556
C      -2.0181186      2.4673954     -1.8365366
H      -2.1242456     -4.4162946      2.6907605
H      -2.0196459      3.3704717     -2.4493288
C      -0.9292243     -2.7839184      2.0006522
C      -0.8705678     -1.5757321      1.2410355
C      -1.5403355      0.0622241     -1.6122349
C      -1.5415354      1.2518231     -2.3989882
O       0.3191641     -0.9693102      1.2379175
H      -0.0111202     -3.1102244      2.4911087
C      -1.1039116     -1.1554450     -2.2002804
C      -1.0680209      1.1921812     -3.7376763
H      -1.0995806     -2.0619780     -1.5938605
H      -1.0581247      2.1096751     -4.3297418
C      -0.6697691     -1.1857368     -3.5020983
C      -0.6404045      0.0014391     -4.2751177
H      -0.3137154     -2.1234305     -3.9328601
H      -0.2770357     -0.0351602     -5.3032685
H       4.5740995     -0.7918962      2.4135113
C       4.6978243     -0.0697488     -0.7008357
C       4.5618738      1.2221924     -1.3773945
C       3.6191993      1.3676943      0.7341267
C       3.9402575     -0.9708003      1.5314626
C       3.8579823      2.0703036     -0.5654551
N       4.0757446      0.0792713      0.5561654
O       3.1323305      1.7967788      1.7636999
O       5.2570112     -1.0923186     -1.0489583
H       4.9822317      1.4130926     -2.3610748
H       4.2473732     -1.9076074      1.0509323
H       3.7338285      3.1495872     -0.6464572
H       2.8914238     -1.0477666      1.8492912
