85
CONF8
O 2.1771498942 -1.6205945365 1.6303298559
C 2.5358590056 -2.0462953226 0.5416262194
O 2.1648209978 -3.2616406391 0.0690888679
C 1.2842393479 -4.0369828922 0.9224618805
C 0.9542505958 -5.3126685381 0.1857336178
C 3.3825080582 -1.3551702113 -0.4459327120
N 4.0676277896 -0.2531236193 -0.0007891783
C 4.9989571096 0.2048633406 -0.7824228792
C 5.6583919340 1.4776953572 -0.5237266352
C 5.2743922670 2.3104991487 0.5417471179
C 5.9066341913 3.5285508303 0.7468568744
C 6.9289026740 3.9480012476 -0.1075733445
C 7.3108326734 3.1353773665 -1.1731806060
C 6.6809550989 1.9129243981 -1.3799338446
H 1.8006790441 -4.2412758500 1.8674694223
H 0.3871175334 -3.4457641015 1.1317972579
H 0.2627458899 -5.9113091679 0.7872194963
H 1.8543396296 -5.9076068328 0.0038478361
H 0.4780192211 -5.0992646477 -0.7757060580
H -0.4654412599 -0.9403111196 -0.3539841083
H 3.8721318040 -2.0371340757 -1.1506534396
H 5.3627446834 -0.3659152671 -1.6465804005
H 4.4754104789 1.9870293530 1.2007387092
H 5.6009554070 4.1612171335 1.5753993437
H 7.4189854235 4.9030928237 0.0549872006
H 8.0999425640 3.4568173523 -1.8464787083
H 6.9753474098 1.2838248553 -2.2161174618
H -2.6099504045 -2.3087698660 4.6275436766
C -2.2126908472 -1.6507409445 3.8710014223
H -3.8566812007 -0.4390770437 2.9845885812
H -0.1496193273 -3.4985584785 4.1565156357
C -2.8235974819 -0.7358398694 3.0720861884
H 0.2960904505 -2.1392849953 5.2275827758
C 0.1643979413 -2.4532384564 4.1890744422
N -0.8672240171 -1.6273842852 3.5599075954
H -7.4762075585 0.2696354557 0.5061606247
H -8.2844189463 -2.0589842974 0.1656893912
C -6.7632244512 -0.5225135113 0.2976262250
C -7.2226954538 -1.8412183801 0.1066173885
N -1.8348708073 -0.1669644643 2.2904840827
H 1.0937528315 -2.3260020891 3.6332125566
C -0.6535770945 -0.7222068282 2.6037676227
C -5.4204755168 -0.2265459752 0.2233752935
C -6.3193455603 -2.8466498433 -0.1501595966
H -1.1609533888 2.3738138096 2.4903065528
H -5.0855923469 0.7945650743 0.3750242419
H -6.6570018836 -3.8697205823 -0.2937812238
C -2.0221146178 0.8220273001 1.2637043822
C -1.5904809780 2.1346663742 1.5231628626
C -4.4635762531 -1.2370462974 -0.0509986715
C -4.9337470981 -2.5765094519 -0.2314597626
H 0.2933357177 -0.5186439224 2.1180665080
C -3.0650405506 -0.9581324231 -0.1314469593
C -3.9880821702 -3.6016821943 -0.4811441438
C -2.5866835361 0.4324910485 0.0672927567
C -1.7210972912 3.0856283949 0.5456161317
H -4.3407252811 -4.6202226926 -0.6182113025
H -1.3939282741 4.1051985648 0.7258592643
C -2.6522741031 -3.3215372535 -0.5494139306
C -2.1733860106 -1.9958832526 -0.3784327213
C -2.7047363624 1.4116818250 -0.9635625642
C -2.2664325466 2.7516095422 -0.7165613907
O -0.8385671547 -1.8606655988 -0.4800429607
H -1.9231111470 -4.1024125218 -0.7416809856
C -3.2260912904 1.0887038980 -2.2399321582
C -2.3739774704 3.7124087474 -1.7512604234
H -3.5503608575 0.0714691455 -2.4335004576
H -2.0363440158 4.7264787419 -1.5566436893
C -3.3121550075 2.0449569242 -3.2239194839
C -2.8852042476 3.3672402717 -2.9789867512
H -3.7079789447 1.7818103767 -4.1998491233
H -2.9579526431 4.1100130783 -3.7672125850
H 0.7585218974 3.2829983813 -1.1660507139
C 2.9241953328 1.4460157315 -2.5262101959
C 2.9115380437 0.0528721462 -2.7980128098
C 1.4715547348 0.4578485646 -1.0222368299
C 1.7266490482 2.9159233740 -0.8018420795
C 2.1374224786 -0.6186485964 -1.8225277269
N 2.0539122120 1.6268881307 -1.3667205085
O 0.5540156652 0.3429555095 -0.1876807259
O 3.4433094664 2.4134775511 -3.0839894858
H 3.4681041718 -0.3974804907 -3.6079936094
H 2.5051840362 3.6221460068 -1.1000160706
H 1.5838728662 -1.5347594592 -2.0053899877
H 1.6893888676 2.8500302650 0.2891697195
