72
Energy = 0.00 kcal/mol
O    10.325194 0.542865 -4.459455
C    10.844739 1.529747 -3.929419
O    11.883615 2.171129 -4.541935
C    12.377280 1.590781 -5.742494
C    13.314861 0.431816 -5.458398
C    10.445624 2.168137 -2.721564
N    9.472660 1.579180 -1.978404
C    9.052578 2.031163 -0.848211
C    8.021543 1.321495 -0.085509
C    7.416657 1.925193 1.030266
C    6.400216 1.278827 1.732040
C    5.968831 0.008760 1.340179
C    6.582324 -0.615515 0.247947
C    7.599633 0.028039 -0.450755
H    11.531165 1.261348 -6.362339
H    12.903044 2.403012 -6.262733
H    12.770122 -0.375294 -4.950276
H    14.147493 0.757998 -4.819097
H    13.730062 0.037661 -6.396926
H    9.571704 3.529394 -3.690015
H    11.056845 2.992421 -2.328894
H    9.447946 2.965534 -0.409826
H    7.737572 2.925667 1.331988
H    5.937243 1.770343 2.590471
H    5.172448 -0.497375 1.888546
H    6.267690 -1.616976 -0.054711
H    8.098840 -0.460484 -1.290713
H    5.497272 -2.305245 -3.757623
C    5.890331 -1.299633 -3.645686
H    4.333764 0.013826 -2.737956
H    8.269524 -2.738793 -4.037560
C    5.323569 -0.168602 -3.145017
H    9.091620 -1.297848 -4.734541
C    8.146442 -1.848083 -4.663760
N    7.165816 -0.960026 -4.046988
H    3.440923 0.736067 -6.832498
H    4.747441 0.084184 -8.862610
C    4.480695 1.052570 -6.931858
C    5.218588 0.686091 -8.084072
N    6.266011 0.837472 -3.255079
H    7.795949 -2.139902 -5.661115
C    7.377204 0.327751 -3.799683
C    5.060811 1.811396 -5.941260
C    6.522317 1.100452 -8.220743
H    5.188182 1.540025 -0.977667
H    4.474636 2.101527 -5.066993
H    7.099845 0.834682 -9.109004
C    6.044013 2.197640 -2.862193
C    5.413653 2.401206 -1.610290
C    6.415540 2.238623 -6.042664
C    7.150567 1.881043 -7.212077
H    8.329456 0.828930 -3.982461
C    7.067413 2.987087 -5.005961
C    8.501148 2.312895 -7.344294
C    6.402270 3.243029 -3.696896
C    5.148655 3.675173 -1.186116
H    9.058056 2.033995 -8.241514
H    4.683779 3.844486 -0.213032
C    9.091010 3.066196 -6.365125
C    8.376375 3.406407 -5.183706
C    6.122855 4.579281 -3.255791
C    5.497393 4.792051 -1.991733
O    8.997862 4.141148 -4.229151
H    10.123948 3.409870 -6.445066
C    6.438786 5.714256 -4.055115
C    5.231715 6.120882 -1.557391
H    6.907634 5.563858 -5.027561
H    4.760091 6.267125 -0.583345
C    6.166551 6.985901 -3.611683
C    5.561636 7.195229 -2.346170
H    6.420353 7.843667 -4.236490
H    5.356761 8.211153 -2.004785
