72
Energy = 0.00 kcal/mol
O    -1.645592 2.347339 -0.174877
C    -2.743323 2.140274 -0.710647
O    -3.643642 3.164983 -0.835278
C    -3.270961 4.425234 -0.311693
C    -4.478083 5.335181 -0.385389
C    -3.256591 0.941257 -1.250675
N    -2.568226 -0.225872 -1.190359
C    -3.062148 -1.317111 -1.694317
C    -2.439037 -2.638040 -1.685650
C    -3.112697 -3.680814 -2.353465
C    -2.594779 -4.972247 -2.393534
C    -1.383982 -5.263335 -1.761876
C    -0.706263 -4.241727 -1.091077
C    -1.219014 -2.947740 -1.049092
H    -2.922702 4.309667 0.727128
H    -2.430567 4.838534 -0.895231
H    -4.818347 5.441667 -1.424835
H    -4.228669 6.330928 0.005526
H    -5.305137 4.922387 0.209004
H    -1.101727 -0.084898 -0.495735
H    -4.254103 0.964261 -1.700611
H    -4.048507 -1.269103 -2.183467
H    -4.062317 -3.462754 -2.848511
H    -3.141224 -5.757331 -2.919364
H    -0.975320 -6.274763 -1.787592
H    0.238270 -4.454359 -0.585711
H    -0.673887 -2.174473 -0.508018
H    2.761842 5.083637 1.933327
C    2.415713 4.059300 1.834660
H    3.971776 2.662880 2.617318
H    -0.150097 5.327527 1.593413
C    3.004801 2.880898 2.173630
H    -0.592723 4.144681 0.306261
C    0.223725 4.714322 0.764998
N    1.193831 3.750734 1.277361
H    6.539570 1.063925 -1.541773
H    5.951802 1.977125 -3.793005
C    5.494034 1.104452 -1.852632
C    5.162112 1.622600 -3.129086
N    2.124953 1.877751 1.815042
H    0.715730 5.350850 0.020789
C    1.031771 2.430778 1.272328
C    4.511593 0.651659 -1.002535
C    3.845388 1.675398 -3.525086
H    2.684180 0.654629 4.085729
H    4.778113 0.251330 -0.021989
H    3.576890 2.071986 -4.506831
C    2.394915 0.474343 1.941019
C    2.701785 -0.023623 3.231679
C    3.140410 0.695328 -1.385573
C    2.807044 1.218257 -2.670227
H    0.142762 1.907976 0.900369
C    2.094471 0.239370 -0.530664
C    1.435924 1.273926 -3.053977
C    2.388856 -0.322672 0.815320
C    3.006173 -1.350536 3.385377
H    1.183183 1.681542 -4.035334
H    3.246239 -1.749477 4.372345
C    0.441352 0.840590 -2.217215
C    0.769160 0.305510 -0.935323
C    2.681279 -1.715581 0.974476
C    3.000835 -2.228617 2.266110
O    -0.165104 -0.103034 -0.080002
H    -0.610034 0.905535 -2.501973
C    2.669067 -2.605584 -0.135598
C    3.304832 -3.610357 2.407658
H    2.411788 -2.216327 -1.122168
H    3.549091 -3.994092 3.400169
C    2.968594 -3.936840 0.033386
C    3.290725 -4.445599 1.316774
H    2.954295 -4.609505 -0.825572
H    3.525752 -5.504309 1.434705
