85
Energy = 0.00 kcal/mol
O    -1.723390 2.487359 -1.007957
C    -2.882911 2.201006 -0.834397
O    -3.830654 3.090008 -0.536654
C    -3.422556 4.429258 -0.249208
C    -4.658266 5.295089 -0.185172
C    -3.477653 0.814752 -0.878292
N    -2.558757 -0.185412 -1.299101
C    -3.147880 -1.314492 -1.540785
C    -2.490514 -2.628126 -1.609049
C    -3.178050 -3.677424 -2.236805
C    -2.628150 -4.955417 -2.295020
C    -1.385792 -5.202808 -1.708444
C    -0.705301 -4.169879 -1.059742
C    -1.251858 -2.889868 -1.002514
H    -2.891446 4.415196 0.714109
H    -2.724838 4.768547 -1.028732
H    -5.164492 5.315172 -1.159391
H    -4.378171 6.322254 0.083861
H    -5.359373 4.914973 0.570288
H    -1.101279 0.000324 -0.787692
H    -4.403375 0.850758 -1.479026
H    -4.205042 -1.317791 -1.842191
H    -4.155565 -3.482592 -2.684434
H    -3.171180 -5.760853 -2.792516
H    -0.954420 -6.204696 -1.744395
H    0.256413 -4.363577 -0.581156
H    -0.728382 -2.093759 -0.471021
H    2.528732 5.041246 2.026946
C    2.183375 4.019705 1.902293
H    3.725446 2.606004 2.683493
H    -0.552024 5.125678 1.656041
C    2.766996 2.833952 2.227143
H    -0.676713 4.158168 0.139187
C    0.001755 4.688444 0.816253
N    0.971029 3.721496 1.317141
H    6.656625 0.962754 -1.255604
H    6.272327 1.882323 -3.548091
C    5.639375 1.038778 -1.643627
C    5.423395 1.559258 -2.943857
N    1.891463 1.840947 1.832643
H    0.535934 5.474547 0.271954
C    0.808735 2.402278 1.284472
C    4.580193 0.628134 -0.866826
C    4.143018 1.652724 -3.438309
H    2.121752 0.511184 4.097167
H    4.757026 0.227179 0.133640
H    3.961779 2.050423 -4.439622
C    2.142698 0.431985 1.928978
C    2.250610 -0.130160 3.224367
C    3.243747 0.716276 -1.351198
C    3.028474 1.235289 -2.663236
H    -0.075718 1.866808 0.919519
C    2.121388 0.300648 -0.576754
C    1.695947 1.319031 -3.160671
C    2.277201 -0.309588 0.773657
C    2.492956 -1.471937 3.355760
H    1.536688 1.715540 -4.166019
H    2.570288 -1.924428 4.345759
C    0.627053 0.922208 -2.402774
C    0.833939 0.403856 -1.088890
C    2.528119 -1.714230 0.906581
C    2.637640 -2.295144 2.204816
O    -0.176768 0.030241 -0.314371
H    -0.397350 1.003450 -2.767284
C    2.679322 -2.550493 -0.234718
C    2.890866 -3.689382 2.321931
H    2.589366 -2.109194 -1.228373
H    2.968403 -4.125244 3.319863
C    2.935351 -3.893340 -0.088674
C    3.039310 -4.470879 1.201736
H    3.053391 -4.522200 -0.972467
H    3.238184 -5.538819 1.301731
H    -1.254412 -2.315951 2.656426
C    -3.418838 -1.772930 1.380396
C    -4.389915 -1.013910 0.705898
C    -2.680200 0.429738 1.454668
C    -1.175690 -1.236011 2.480541
C    -3.955754 0.393635 0.615909
N    -2.355876 -0.843322 1.754590
O    -2.041212 1.434372 1.749071
O    -3.317889 -2.959800 1.685529
H    -5.350448 -1.415567 0.395311
H    -1.112473 -0.706400 3.443486
H    -4.661270 1.172943 0.936785
H    -0.272254 -1.015808 1.891400
