85
Energy = 0.00 kcal/mol
O    1.080968 -2.838663 -0.681302
C    2.218740 -2.797116 -1.086571
O    2.683363 -3.590217 -2.046173
C    1.716673 -4.358502 -2.770426
C    2.452981 -5.253088 -3.738597
C    3.287453 -1.850439 -0.580703
N    2.734196 -0.942900 0.370260
C    3.576224 -0.379753 1.143553
C    3.239993 0.806663 1.952783
C    2.248644 1.700376 1.522209
C    2.011814 2.871567 2.237951
C    2.742078 3.149021 3.396938
C    3.723715 2.258408 3.833389
C    3.981602 1.099193 3.103859
H    1.106858 -4.931889 -2.058445
H    1.058778 -3.649418 -3.295799
H    1.727895 -5.832064 -4.325980
H    3.107713 -5.954507 -3.203359
H    3.063430 -4.656071 -4.429647
H    0.267440 -0.579248 -2.055705
H    4.138838 -2.446114 -0.201197
H    4.609552 -0.754670 1.246237
H    1.712705 1.481665 0.594243
H    1.277281 3.591054 1.874132
H    2.560320 4.073445 3.947848
H    4.303487 2.478436 4.731041
H    4.772867 0.415461 3.420045
H    -0.179491 -1.422756 4.775288
C    -0.320493 -0.958405 3.804101
H    -1.716323 0.770674 3.997788
H    2.164623 -2.302175 3.034071
C    -1.067533 0.112968 3.427565
H    1.290662 -2.909890 1.586639
C    1.187679 -2.592039 2.628236
N    0.285823 -1.445308 2.666140
H    -6.413472 -1.024487 1.962479
H    -6.706527 -3.315678 1.010354
C    -5.665921 -1.422843 1.274416
C    -5.832801 -2.722983 0.736190
N    -0.902291 0.254927 2.062567
H    0.751928 -3.394833 3.233384
C    -0.068494 -0.699098 1.622888
C    -4.571794 -0.659285 0.937193
C    -4.893967 -3.231770 -0.130781
H    -0.793469 2.799584 2.671387
H    -4.453520 0.343086 1.354084
H    -5.012850 -4.231437 -0.554544
C    -1.511124 1.293730 1.283745
C    -1.361267 2.621720 1.757977
C    -3.581361 -1.162979 0.046427
C    -3.749949 -2.472180 -0.494592
H    0.323672 -0.820200 0.608438
C    -2.429571 -0.406865 -0.320067
C    -2.761054 -2.982374 -1.384103
C    -2.233913 0.991600 0.149264
C    -1.915204 3.659700 1.057557
H    -2.893108 -3.985149 -1.796185
H    -1.796302 4.686206 1.408396
C    -1.654739 -2.246061 -1.715837
C    -1.483154 -0.938903 -1.179823
C    -2.802070 2.075356 -0.598464
C    -2.638980 3.415877 -0.141834
O    -0.421083 -0.178932 -1.455194
H    -0.878952 -2.646108 -2.368022
C    -3.526265 1.845844 -1.801624
C    -3.204939 4.481511 -0.894020
H    -3.647437 0.822858 -2.160571
H    -3.074194 5.503963 -0.533908
C    -4.058929 2.896781 -2.509812
C    -3.899331 4.228744 -2.051963
H    -4.605600 2.705761 -3.434230
H    -4.328709 5.052130 -2.624707
H    1.602856 2.176502 -3.383123
C    4.145957 1.334050 -1.515758
C    4.789900 0.104819 -1.425616
C    2.638272 -0.246926 -2.323128
C    1.807004 2.072751 -2.306914
C    3.858940 -0.985611 -1.801893
N    2.790899 1.047726 -2.059369
O    1.647867 -0.796332 -2.835879
O    4.441482 2.509262 -1.283123
H    5.815183 -0.016001 -1.085960
H    2.225899 3.011447 -1.923606
H    4.209985 -1.716980 -2.544350
H    0.863532 1.836685 -1.792497
