85
Energy = 0.00 kcal/mol
O    -1.836090 2.577035 -1.194148
C    -2.959629 2.275159 -0.886896
O    -3.860583 3.126431 -0.398718
C    -3.414832 4.441148 -0.062315
C    -4.633289 5.283860 0.229043
C    -3.569782 0.895594 -0.957760
N    -2.766126 -0.107443 -1.616951
C    -3.442016 -1.351812 -1.261697
C    -2.680853 -2.622382 -1.554857
C    -3.362130 -3.711909 -2.107296
C    -2.710577 -4.925239 -2.331426
C    -1.361897 -5.060676 -2.004608
C    -0.676829 -3.979881 -1.446279
C    -1.327658 -2.767503 -1.220702
H    -2.758174 4.353939 0.815940
H    -2.827503 4.846081 -0.899291
H    -5.275078 5.347940 -0.660060
H    -4.326144 6.298997 0.513105
H    -5.215074 4.849790 1.053340
H    -1.810457 -0.070721 -1.211803
H    -4.542366 0.999975 -1.467434
H    -4.381206 -1.387178 -1.836952
H    -4.418642 -3.608725 -2.367055
H    -3.258159 -5.765347 -2.762381
H    -0.846088 -6.005887 -2.183852
H    0.373693 -4.081572 -1.167974
H    -0.785835 -1.932615 -0.764253
H    2.399439 5.045229 2.139215
C    2.092174 4.015447 1.985822
H    3.551081 2.643125 2.970633
H    -0.488113 5.193674 1.334924
C    2.651639 2.845648 2.397083
H    -0.588750 4.065216 -0.066429
C    0.084236 4.632783 0.586324
N    0.970768 3.686747 1.252179
H    6.626468 0.854196 -1.183064
H    6.265372 1.718162 -3.503761
C    5.612872 0.929029 -1.582044
C    5.411395 1.416884 -2.895166
N    1.854771 1.829673 1.904475
H    0.688571 5.323217 -0.012801
C    0.840133 2.363772 1.214837
C    4.544209 0.549465 -0.799761
C    4.129101 1.506591 -3.393936
H    2.175482 0.535120 4.177406
H    4.715621 0.180576 0.214046
H    3.955512 1.882779 -4.405735
C    2.138459 0.428770 2.008056
C    2.295468 -0.113434 3.308276
C    3.206270 0.632800 -1.286844
C    3.009565 1.118295 -2.617342
H    0.032976 1.789887 0.737274
C    2.079482 0.258149 -0.503149
C    1.673882 1.194770 -3.120650
C    2.255395 -0.323209 0.855386
C    2.575647 -1.446373 3.454093
H    1.521859 1.561002 -4.139967
H    2.696148 -1.880317 4.448320
C    0.603071 0.830823 -2.357052
C    0.759096 0.350506 -0.998009
C    2.538942 -1.722030 1.010171
C    2.706616 -2.283069 2.310797
O    -0.257568 0.058375 -0.273972
H    -0.418667 0.903511 -2.734643
C    2.670062 -2.572742 -0.123022
C    3.007393 -3.667456 2.437297
H    2.526217 -2.143429 -1.115796
H    3.136642 -4.086835 3.437241
C    2.969045 -3.905662 0.030274
C    3.140842 -4.460559 1.323267
H    3.073594 -4.543615 -0.849105
H    3.379279 -5.519865 1.429665
H    -1.124845 -1.802475 3.167223
C    -2.916593 -1.743611 1.245740
C    -3.907852 -1.183786 0.246851
C    -2.657866 0.542865 1.378871
C    -1.020760 -0.867892 2.604909
C    -3.858626 0.331605 0.462427
N    -2.198955 -0.684939 1.787430
O    -2.184863 1.608592 1.708060
O    -2.741041 -2.898238 1.540157
H    -4.885632 -1.652981 0.406051
H    -0.928991 -0.014448 3.288140
H    -4.749204 0.775223 0.925595
H    -0.142864 -0.910103 1.945395
