85
Energy = 0.00 kcal/mol
O    1.119460 -3.067222 -0.164812
C    2.220678 -2.962555 -0.638197
O    2.744296 -3.803865 -1.521937
C    1.854467 -4.741382 -2.138168
C    2.537409 -5.262463 -3.379983
C    3.206300 -1.868333 -0.296002
N    2.644660 -0.888187 0.608244
C    3.612437 0.204508 0.579750
C    3.102609 1.471804 1.221878
C    1.830954 1.976917 0.917302
C    1.386421 3.156591 1.511708
C    2.196327 3.842654 2.419302
C    3.459992 3.341188 2.729956
C    3.908357 2.162112 2.131493
H    1.626920 -5.543946 -1.420388
H    0.915760 -4.219978 -2.373275
H    1.888724 -5.985641 -3.891717
H    3.484927 -5.757496 -3.125513
H    2.747370 -4.429114 -4.063723
H    1.767702 -0.571390 0.165242
H    4.080586 -2.352276 0.171720
H    4.499079 -0.127187 1.142476
H    1.176402 1.451192 0.212823
H    0.396102 3.540910 1.260325
H    1.842117 4.764373 2.884778
H    4.099404 3.865420 3.442204
H    4.897103 1.768401 2.379779
H    -1.006696 -2.386365 4.929399
C    -0.983523 -1.708190 4.082224
H    -2.489704 -0.089324 4.385227
H    1.710635 -2.567019 2.321862
C    -1.704318 -0.582487 3.820870
H    0.414077 -3.800252 2.315795
C    0.854762 -2.968271 2.876447
N    -0.123573 -1.893279 3.020249
H    -6.478732 -0.966494 1.058620
H    -6.643906 -3.028434 -0.350686
C    -5.618303 -1.291871 0.470028
C    -5.715526 -2.455832 -0.327422
N    -1.266800 -0.107799 2.600583
H    1.155370 -3.292977 3.877762
C    -0.315655 -0.922493 2.133558
C    -4.449482 -0.562699 0.514831
C    -4.626236 -2.853794 -1.074553
H    -1.548264 2.236522 3.764904
H    -4.396868 0.332240 1.138717
H    -4.683773 -3.747293 -1.701835
C    -1.706713 1.079354 1.931850
C    -1.808812 2.262786 2.705992
C    -3.300066 -0.958460 -0.233340
C    -3.411830 -2.126189 -1.050633
H    0.218022 -0.782259 1.192180
C    -2.064591 -0.247913 -0.184479
C    -2.279224 -2.516037 -1.831442
C    -2.010252 1.026278 0.585872
C    -2.214694 3.426487 2.109258
H    -2.373006 -3.391210 -2.480844
H    -2.300586 4.345253 2.692001
C    -1.104130 -1.826872 -1.770855
C    -0.926035 -0.676173 -0.905509
C    -2.385725 2.259102 -0.048795
C    -2.492741 3.459465 0.714360
O    0.215559 -0.106361 -0.800032
H    -0.234493 -2.117364 -2.363037
C    -2.669095 2.308731 -1.442537
C    -2.875268 4.665664 0.064734
H    -2.584339 1.389166 -2.022915
H    -2.954846 5.578560 0.658475
C    -3.033362 3.490368 -2.043897
C    -3.139291 4.682090 -1.283706
H    -3.242153 3.513691 -3.114469
H    -3.430564 5.612563 -1.773631
H    1.436644 0.817268 -4.404031
C    3.309508 1.311996 -1.751083
C    4.090931 0.306962 -0.923841
C    2.600544 -0.749877 -2.511091
C    1.424275 1.239529 -3.391600
C    3.719005 -1.060918 -1.518460
N    2.453685 0.616851 -2.589881
O    1.957253 -1.544808 -3.154389
O    3.397238 2.513497 -1.707746
H    5.155574 0.564740 -0.973576
H    1.627942 2.315290 -3.427022
H    4.529635 -1.574385 -2.050339
H    0.453367 1.047347 -2.913276
