27
Energy = 0.00 kcal/mol
O    -1.865902 1.013846 -0.855798
C    -2.237400 0.212211 -0.040353
O    -3.508314 0.054858 0.319959
C    -4.470974 0.883918 -0.346509
C    -5.823145 0.605870 0.264290
C    -1.335636 -0.783251 0.667638
N    0.004833 -0.269059 0.765166
C    0.882342 -0.763772 -0.004352
C    2.287291 -0.308713 -0.007209
C    2.717737 0.709117 0.856841
C    4.048011 1.115278 0.846146
C    4.958297 0.511055 -0.027743
C    4.535696 -0.499460 -0.891740
C    3.201745 -0.909072 -0.880247
H    -4.172030 1.934917 -0.225500
H    -4.447362 0.651575 -1.421577
H    -6.094598 -0.451907 0.144248
H    -6.585933 1.220104 -0.231914
H    -5.821148 0.850413 1.335368
H    -1.406192 -1.727494 0.092792
H    -1.749462 -0.969876 1.668018
H    0.639845 -1.579195 -0.712034
H    1.989682 1.165393 1.529182
H    4.383126 1.906547 1.519484
H    6.001190 0.832021 -0.033294
H    5.245729 -0.968739 -1.574684
H    2.863417 -1.701375 -1.552385
