40
Energy = 0.00 kcal/mol
O    2.008613 2.175791 0.858707
C    0.942127 1.628779 0.749284
C    0.486342 0.354267 1.438682
C    -1.014121 0.247882 1.116444
C    -1.176570 -1.157554 0.512473
C    -2.369358 -1.304841 -0.409582
O    -3.502806 -1.154806 0.266767
C    -4.711505 -1.177490 -0.502354
C    -5.874228 -1.057860 0.452928
O    -2.304945 -1.556689 -1.582750
N    0.084343 -1.313382 -0.170685
C    1.098074 -0.940983 0.804339
C    2.474716 -0.796056 0.204619
C    3.604716 -1.050535 0.986482
C    4.883998 -0.889697 0.455469
C    5.041488 -0.472668 -0.867270
C    3.916201 -0.218635 -1.653346
C    2.638189 -0.378155 -1.119532
N    -0.091860 2.074166 -0.063351
C    0.005003 3.216360 -0.947289
C    -1.237142 1.315911 0.053512
O    -2.239326 1.491828 -0.595182
H    0.734454 0.423288 2.503566
H    -1.688338 0.431636 1.961718
H    -1.325642 -1.873115 1.345780
H    -4.676287 -0.344275 -1.219502
H    -4.748649 -2.113685 -1.077184
H    -5.873143 -1.889542 1.170910
H    -6.817999 -1.085451 -0.107527
H    -5.825884 -0.112447 1.009875
H    0.226428 -2.244876 -0.556649
H    1.159161 -1.676628 1.629260
H    3.479074 -1.387457 2.018312
H    5.759825 -1.097140 1.073245
H    6.040974 -0.350526 -1.287255
H    4.033053 0.105443 -2.689003
H    1.751630 -0.187105 -1.726987
H    1.012805 3.632438 -0.843568
H    -0.742380 3.972516 -0.673536
H    -0.169014 2.903100 -1.984925
