85
Energy = 0.00 kcal/mol
O    0.944004 -2.567945 -0.872604
C    2.145197 -2.724367 -1.010976
O    2.650507 -3.603503 -1.886489
C    1.720759 -4.201438 -2.790653
C    2.488118 -5.137121 -3.694755
C    3.191531 -1.956679 -0.337642
N    2.790085 -0.992930 0.530855
C    3.712142 -0.373457 1.195949
C    3.441183 0.837766 1.978505
C    2.329552 1.651093 1.700980
C    2.129438 2.833349 2.407514
C    3.022809 3.219839 3.410162
C    4.132489 2.421120 3.689679
C    4.344747 1.246609 2.970336
H    0.944247 -4.728974 -2.217018
H    1.234297 -3.393083 -3.357677
H    1.804005 -5.605092 -4.414983
H    2.975188 -5.929775 -3.110170
H    3.259503 -4.588278 -4.252188
H    0.164955 -0.754494 -2.172513
H    4.147373 -2.477955 -0.193082
H    4.736169 -0.777380 1.259332
H    1.661819 1.360783 0.886195
H    1.290363 3.482615 2.152416
H    2.864376 4.151355 3.956174
H    4.841786 2.720802 4.463256
H    5.224372 0.631675 3.176040
H    -0.191107 -1.484408 4.629062
C    -0.338251 -1.020911 3.658587
H    -1.679479 0.748379 3.872458
H    2.104281 -2.433224 2.789452
C    -1.061573 0.070265 3.292112
H    1.129051 -3.045923 1.415675
C    1.096442 -2.703433 2.453479
N    0.231767 -1.529654 2.511525
H    -6.367688 -0.958471 2.045366
H    -6.728196 -3.274742 1.180080
C    -5.656727 -1.387203 1.337185
C    -5.862497 -2.700641 0.846974
N    -0.918216 0.200412 1.922775
H    0.670481 -3.479182 3.099112
C    -0.118654 -0.776867 1.472969
C    -4.571756 -0.646937 0.927047
C    -4.971096 -3.244830 -0.047991
H    -0.761728 2.739384 2.519182
H    -4.423411 0.365518 1.308159
H    -5.119296 -4.255669 -0.434701
C    -1.512609 1.243222 1.141106
C    -1.335005 2.570327 1.607450
C    -3.630614 -1.186073 0.004588
C    -3.839936 -2.507739 -0.489766
H    0.244572 -0.921715 0.451671
C    -2.487965 -0.453571 -0.436265
C    -2.903968 -3.053182 -1.414579
C    -2.248590 0.946973 0.012285
C    -1.876705 3.614997 0.908072
H    -3.068631 -4.064464 -1.792454
H    -1.741098 4.640368 1.256224
C    -1.810856 -2.338031 -1.824505
C    -1.597444 -1.020204 -1.332048
C    -2.806531 2.038061 -0.732261
C    -2.615283 3.377827 -0.283353
O    -0.549726 -0.274015 -1.699001
H    -1.079101 -2.762417 -2.511734
C    -3.559670 1.816321 -1.918997
C    -3.173486 4.450211 -1.031272
H    -3.708659 0.793724 -2.268254
H    -3.018051 5.471278 -0.677376
C    -4.088249 2.873366 -2.620984
C    -3.893388 4.204703 -2.175187
H    -4.660258 2.688014 -3.531278
H    -4.317962 5.033219 -2.743880
H    1.207402 2.001042 -2.905553
C    3.938938 1.382331 -1.181811
C    4.768533 0.211570 -1.313736
C    2.696142 -0.213697 -2.276076
C    1.568468 1.971785 -1.867706
C    4.011118 -0.811159 -1.885216
N    2.662994 1.038800 -1.746659
O    1.796274 -0.743781 -2.926006
O    4.157596 2.498798 -0.745355
H    5.813529 0.193827 -1.017982
H    1.949617 2.957332 -1.574013
H    4.381106 -1.672674 -2.440835
H    0.722978 1.689325 -1.223545
