85
Energy = 0.00 kcal/mol
O    0.996251 -2.914629 -0.740794
C    2.152488 -2.859499 -1.087673
O    2.658500 -3.623213 -2.055202
C    1.726228 -4.377778 -2.827152
C    2.509520 -5.268467 -3.762098
C    3.200914 -1.953890 -0.488659
N    2.660193 -1.063167 0.458364
C    3.653879 -0.325020 0.932269
C    3.332785 0.892371 1.720766
C    2.270583 1.724846 1.339886
C    1.983876 2.876192 2.069315
C    2.729894 3.194933 3.206771
C    3.782212 2.367457 3.597871
C    4.089570 1.232761 2.847608
H    1.078783 -4.954391 -2.151050
H    1.093304 -3.665543 -3.379264
H    1.822042 -5.856453 -4.384415
H    3.144989 -5.960824 -3.193182
H    3.150356 -4.667285 -4.420892
H    0.282250 -0.598193 -2.068740
H    4.035914 -2.599048 -0.129376
H    4.600689 -0.807850 1.246108
H    1.696187 1.462585 0.446586
H    1.187906 3.543193 1.735465
H    2.502496 4.098097 3.775786
H    4.374272 2.614372 4.480780
H    4.927208 0.594383 3.138934
H    -0.187768 -1.486935 4.755929
C    -0.316539 -0.999126 3.795065
H    -1.714438 0.725500 4.014073
H    2.209995 -2.301359 2.875483
C    -1.057755 0.082376 3.437368
H    1.211554 -2.971509 1.558152
C    1.198398 -2.610294 2.589979
N    0.302079 -1.459562 2.653083
H    -6.382660 -0.984413 1.953700
H    -6.698930 -3.267698 0.989869
C    -5.638311 -1.388116 1.265444
C    -5.819322 -2.682235 0.719394
N    -0.876150 0.256428 2.077983
H    0.812897 -3.377349 3.271551
C    -0.035177 -0.685887 1.624775
C    -4.535580 -0.634842 0.935130
C    -4.886588 -3.192618 -0.152637
H    -0.830758 2.789649 2.739730
H    -4.407091 0.363413 1.358379
H    -5.016325 -4.187667 -0.584006
C    -1.494742 1.297422 1.312531
C    -1.388759 2.618065 1.818802
C    -3.550445 -1.140316 0.040176
C    -3.737100 -2.441056 -0.514183
H    0.393871 -0.780378 0.620874
C    -2.390277 -0.391558 -0.321207
C    -2.762146 -2.946329 -1.421075
C    -2.199404 1.002321 0.164403
C    -1.966643 3.655823 1.138355
H    -2.909074 -3.940351 -1.848540
H    -1.884974 4.676029 1.517403
C    -1.653084 -2.216667 -1.753300
C    -1.456896 -0.922453 -1.194633
C    -2.788194 2.087819 -0.564974
C    -2.667155 3.421412 -0.076575
O    -0.385706 -0.173861 -1.475787
H    -0.891307 -2.615385 -2.422216
C    -3.498055 1.865448 -1.777947
C    -3.250940 4.487736 -0.812862
H    -3.591338 0.847088 -2.156897
H    -3.148471 5.505286 -0.430798
C    -4.051379 2.917123 -2.468144
C    -3.927558 4.242412 -1.982723
H    -4.587691 2.731688 -3.399745
H    -4.370603 5.067276 -2.542457
H    1.714701 2.016299 -3.510565
C    4.015249 1.353980 -1.293515
C    4.603071 0.099994 -0.913869
C    2.686543 -0.285946 -2.239347
C    1.835701 2.030209 -2.418319
C    3.861818 -0.999585 -1.596240
N    2.795354 1.034725 -2.001454
O    1.755799 -0.832872 -2.835292
O    4.327422 2.508896 -1.084199
H    5.672582 0.065226 -0.711679
H    2.227880 3.003798 -2.101105
H    4.409458 -1.597997 -2.336212
H    0.857411 1.843211 -1.952279
