85
Energy = 0.00 kcal/mol
O    -1.712278 2.513944 -0.999022
C    -2.869524 2.217764 -0.827210
O    -3.823759 3.099398 -0.526014
C    -3.423974 4.444288 -0.256431
C    -4.668243 5.296546 -0.180535
C    -3.455185 0.829435 -0.889458
N    -2.540939 -0.169206 -1.313256
C    -3.173445 -1.308742 -1.470087
C    -2.520330 -2.625832 -1.549961
C    -3.194137 -3.666796 -2.203959
C    -2.626251 -4.934944 -2.298476
C    -1.378464 -5.182302 -1.723870
C    -0.712969 -4.158239 -1.047121
C    -1.277567 -2.888163 -0.953524
H    -2.873594 4.445936 0.696307
H    -2.743605 4.783593 -1.050946
H    -5.204976 5.280259 -1.138858
H    -4.394247 6.334371 0.049957
H    -5.340815 4.929356 0.606419
H    -1.130972 -0.008142 -0.803917
H    -4.378405 0.877002 -1.495580
H    -4.204773 -1.293317 -1.850715
H    -4.173311 -3.472212 -2.648404
H    -3.158508 -5.732959 -2.818939
H    -0.929892 -6.174379 -1.793650
H    0.253468 -4.349502 -0.578180
H    -0.759652 -2.096797 -0.409404
H    2.525773 5.039828 2.024249
C    2.181636 4.018352 1.899146
H    3.721005 2.604579 2.686656
H    -0.550552 5.127718 1.637246
C    2.763777 2.832901 2.227301
H    -0.666843 4.163966 0.117918
C    0.008517 4.690110 0.801384
N    0.972039 3.720188 1.308331
H    6.652791 0.959590 -1.246528
H    6.274250 1.879404 -3.540070
C    5.636505 1.036631 -1.637063
C    5.423785 1.557471 -2.937483
N    1.889935 1.839720 1.829848
H    0.549950 5.475544 0.263041
C    0.809918 2.400717 1.275311
C    4.575384 0.626388 -0.862378
C    4.143851 1.651908 -3.433598
H    2.132138 0.512596 4.095978
H    4.751095 0.224989 0.138185
H    3.964829 2.049371 -4.435421
C    2.141922 0.430924 1.927493
C    2.255755 -0.129759 3.223178
C    3.239331 0.715009 -1.348672
C    3.027625 1.235132 -2.660799
H    -0.069190 1.863668 0.899483
C    2.114887 0.298695 -0.577389
C    1.695469 1.318842 -3.160360
C    2.272469 -0.311561 0.772350
C    2.498616 -1.471521 3.354961
H    1.538040 1.715865 -4.165856
H    2.580843 -1.922801 4.345163
C    0.625005 0.921195 -2.405584
C    0.825769 0.400865 -1.089970
C    2.526297 -1.715771 0.905887
C    2.639544 -2.295851 2.204189
O    -0.187906 0.030485 -0.323181
H    -0.398943 0.999181 -2.772262
C    2.675925 -2.552360 -0.235401
C    2.892910 -3.690140 2.321330
H    2.581801 -2.111489 -1.228872
H    2.971952 -4.125951 3.319216
C    2.933125 -3.894990 -0.089402
C    3.039381 -4.471990 1.201057
H    3.048489 -4.524443 -0.973075
H    3.237704 -5.540116 1.301021
H    -1.230367 -2.312189 2.674868
C    -3.387610 -1.795716 1.362544
C    -4.326455 -1.059436 0.598372
C    -2.686773 0.413678 1.446532
C    -1.170731 -1.232920 2.489062
C    -3.944260 0.368904 0.583792
N    -2.357003 -0.859664 1.760847
O    -2.057834 1.418735 1.750391
O    -3.308500 -2.974511 1.686104
H    -5.308356 -1.456267 0.352378
H    -1.113387 -0.693184 3.446066
H    -4.686868 1.101671 0.925900
H    -0.273813 -1.002321 1.894119
