72
Energy = 0.00 kcal/mol
O    10.362011 0.539861 -4.406206
C    10.856184 1.553193 -3.936644
O    11.911780 2.156006 -4.516265
C    12.403882 1.580734 -5.727245
C    13.336238 0.417545 -5.452888
C    10.337577 2.323205 -2.807799
N    9.411760 1.629521 -2.020297
C    9.050268 2.043039 -0.871164
C    8.032745 1.317814 -0.085038
C    7.438720 1.925521 1.029249
C    6.422130 1.279670 1.733665
C    5.993942 0.010252 1.340214
C    6.602578 -0.617409 0.247447
C    7.615923 0.028347 -0.455553
H    11.550252 1.265020 -6.343421
H    12.929724 2.397605 -6.238219
H    12.793895 -0.394029 -4.949839
H    14.173319 0.736695 -4.816178
H    13.745346 0.032216 -6.397418
H    9.661702 3.269547 -3.519493
H    11.088469 2.947171 -2.298153
H    9.462232 2.964693 -0.419204
H    7.761586 2.925850 1.328689
H    5.959143 1.770126 2.592120
H    5.197720 -0.495545 1.889256
H    6.285582 -1.618355 -0.052977
H    8.109937 -0.453976 -1.302233
H    5.474024 -2.315012 -3.745435
C    5.868259 -1.309323 -3.638989
H    4.321453 0.005170 -2.716949
H    8.246208 -2.746044 -4.060302
C    5.307271 -0.177176 -3.133494
H    9.055615 -1.307618 -4.772002
C    8.111280 -1.856629 -4.685879
N    7.138412 -0.969444 -4.057073
H    3.448501 0.724473 -6.827932
H    4.751512 0.077982 -8.864498
C    4.487525 1.043630 -6.930838
C    5.221195 0.680519 -8.085563
N    6.247173 0.829379 -3.255383
H    7.748597 -2.150547 -5.678189
C    7.349152 0.319522 -3.815742
C    5.067526 1.803970 -5.939865
C    6.524051 1.103881 -8.221132
H    5.161880 1.537334 -0.982915
H    4.478957 2.090447 -5.065675
H    7.101981 0.843360 -9.111298
C    6.034040 2.192294 -2.862274
C    5.399728 2.397947 -1.611977
C    6.421570 2.239157 -6.038193
C    7.149877 1.884498 -7.214541
H    8.290447 0.829816 -4.011013
C    7.073315 2.983956 -5.003159
C    8.499070 2.328690 -7.348812
C    6.408096 3.233850 -3.695683
C    5.141109 3.672205 -1.184793
H    9.052903 2.056545 -8.250948
H    4.669978 3.842923 -0.214896
C    9.089395 3.078638 -6.371187
C    8.395880 3.423578 -5.160193
C    6.135675 4.570698 -3.246919
C    5.501774 4.787577 -1.988110
O    9.026264 4.082291 -4.219539
H    10.121616 3.425590 -6.458893
C    6.462400 5.703515 -4.044614
C    5.234000 6.117794 -1.558676
H    6.941254 5.544921 -5.010340
H    4.754231 6.267031 -0.588972
C    6.185685 6.976719 -3.607763
C    5.569302 7.189974 -2.348347
H    6.444970 7.832952 -4.232585
H    5.360271 8.206894 -2.012070
