72
Energy = 0.00 kcal/mol
O    -1.568770 3.506416 -1.483888
C    -2.658915 3.134472 -1.018869
O    -3.685474 2.735953 -1.875370
C    -3.498335 2.996971 -3.258232
C    -4.000817 4.382323 -3.649301
C    -3.020545 3.004577 0.319680
N    -2.174828 3.329650 1.297951
C    -2.473705 3.161027 2.546311
C    -1.585139 3.561938 3.595949
C    -1.813364 3.162876 4.920443
C    -0.955741 3.541070 5.932768
C    0.151945 4.330365 5.657774
C    0.382205 4.750675 4.354341
C    -0.472465 4.377370 3.339685
H    -2.431493 2.901773 -3.496948
H    -4.066007 2.220745 -3.781666
H    -3.422638 5.142592 -3.128918
H    -5.047835 4.490517 -3.375157
H    -3.891701 4.521406 -4.721286
H    -3.179116 0.181777 -0.527498
H    -4.027914 2.631142 0.539430
H    -3.429745 2.700577 2.845466
H    -2.673909 2.544601 5.139704
H    -1.150017 3.220597 6.947371
H    0.820773 4.625664 6.453082
H    1.231931 5.383266 4.138316
H    -0.325512 4.721706 2.327971
H    3.312517 4.416161 1.203688
C    2.488415 3.733660 1.212672
H    2.791774 2.277524 2.844309
H    1.299443 5.798261 -0.275317
C    2.229083 2.678314 2.027760
H    0.356935 4.619286 -1.215343
C    1.305242 4.799367 -0.710654
N    1.460483 3.814290 0.322086
H    4.528590 -0.143991 -0.400416
H    4.440102 0.183651 -2.843574
C    3.571185 -0.026713 -0.885808
C    3.521644 0.154668 -2.276667
N    1.048355 2.128422 1.614330
H    2.123272 4.726540 -1.426470
C    0.605160 2.835100 0.576980
C    2.420372 -0.064271 -0.148773
C    2.314728 0.276364 -2.906883
H    0.775983 1.802819 4.178199
H    2.464900 -0.229979 0.917159
H    2.263093 0.399264 -3.979073
C    0.445246 0.998190 2.213665
C    0.402198 0.959959 3.619414
C    1.157735 0.078757 -0.765896
C    1.108844 0.235421 -2.176204
H    -0.327554 2.708690 0.061941
C    -0.051861 0.041245 -0.027376
C    -0.146852 0.330852 -2.809956
C    -0.052853 -0.037605 1.449223
C    -0.154355 -0.108341 4.258152
H    -0.184451 0.458762 -3.881675
H    -0.215735 -0.127802 5.335402
C    -1.301954 0.252304 -2.088566
C    -1.266343 0.106789 -0.689693
C    -0.586457 -1.179475 2.105726
C    -0.653148 -1.204684 3.524196
O    -2.410096 0.026386 0.036937
H    -2.264266 0.319085 -2.577115
C    -1.028048 -2.313742 1.391112
C    -1.206811 -2.331815 4.166986
H    -0.940447 -2.320481 0.315423
H    -1.264828 -2.333584 5.245792
C    -1.552665 -3.394598 2.043669
C    -1.655370 -3.400924 3.443258
H    -1.889627 -4.254425 1.483658
H    -2.079684 -4.259997 3.941534
