85
Energy = 0.00 kcal/mol
O    -1.916077 1.853226 -1.941207
C    -3.125489 1.698057 -1.836489
O    -3.974437 2.711924 -2.031139
C    -3.394862 3.984361 -2.327611
C    -4.520678 4.972306 -2.519638
C    -3.792950 0.464796 -1.439466
N    -3.001478 -0.631314 -1.326405
C    -3.549130 -1.774897 -1.078194
C    -2.737479 -2.936246 -0.698094
C    -3.356859 -4.141373 -0.340546
C    -2.596316 -5.241523 0.054524
C    -1.204913 -5.148918 0.100591
C    -0.580168 -3.944841 -0.241351
C    -1.336320 -2.845040 -0.631464
H    -2.730531 4.268735 -1.498143
H    -2.773944 3.892516 -3.230566
H    -5.168980 4.661387 -3.350258
H    -4.111374 5.964952 -2.749788
H    -5.130167 5.048029 -1.608683
H    -0.834956 0.719301 -1.275565
H    -4.846550 0.379970 -1.735472
H    -4.637094 -1.926816 -1.161453
H    -4.447058 -4.209358 -0.365237
H    -3.092215 -6.173953 0.330961
H    -0.606830 -6.009387 0.407088
H    0.506803 -3.864599 -0.203574
H    -0.857235 -1.896335 -0.883034
H    2.172866 4.156100 3.510667
C    1.908248 3.239506 2.992608
H    3.450923 1.676398 3.401891
H    -1.065226 3.740711 1.468046
C    2.532220 2.029787 2.943189
H    0.244671 4.974041 1.341484
C    -0.203449 4.195007 1.969103
N    0.777046 3.139629 2.210593
H    6.870201 1.110143 -0.275435
H    6.874688 2.864458 -2.055535
C    5.931575 1.399753 -0.751022
C    5.935660 2.394270 -1.760226
N    1.765097 1.220865 2.126857
H    -0.511784 4.620327 2.930416
C    0.709168 1.917376 1.694244
C    4.757250 0.794867 -0.366196
C    4.755458 2.760346 -2.363677
H    1.898167 -0.749257 3.870641
H    4.768830 0.028467 0.411095
H    4.743329 3.525133 -3.143419
C    2.044799 -0.145721 1.790535
C    2.092727 -1.083972 2.850743
C    3.519557 1.150681 -0.975308
C    3.527134 2.151725 -1.990983
H    -0.105532 1.550011 1.062643
C    2.282409 0.540612 -0.602411
C    2.294954 2.514580 -2.603186
C    2.259885 -0.491657 0.472401
C    2.375255 -2.395318 2.573705
H    2.299274 3.285623 -3.376565
H    2.420549 -3.130669 3.378511
C    1.116921 1.917908 -2.241214
C    1.103661 0.908247 -1.233581
C    2.535738 -1.866138 0.176430
C    2.611451 -2.817431 1.236380
O    -0.032234 0.308154 -0.856622
H    0.170716 2.201962 -2.699975
C    2.761341 -2.305942 -1.157722
C    2.927410 -4.170690 0.933891
H    2.691357 -1.582085 -1.970947
H    2.983908 -4.890243 1.752881
C    3.062348 -3.621888 -1.419315
C    3.152705 -4.563807 -0.363607
H    3.230117 -3.946703 -2.447061
H    3.393681 -5.604037 -0.587093
H    -0.996084 -0.093005 2.937477
C    -3.816870 -1.150095 1.710231
C    -4.867797 -0.401974 1.068828
C    -2.925489 0.873396 1.066281
C    -1.349029 -0.738319 2.115535
C    -4.339598 0.788129 0.573015
N    -2.644178 -0.325719 1.643549
O    -2.146532 1.815107 0.963097
O    -3.805848 -2.230985 2.275183
H    -5.889945 -0.764099 0.997990
H    -0.620400 -0.722014 1.290870
H    -4.885754 1.707298 0.358398
H    -1.451054 -1.767149 2.482994
