  85
G(CENSO)=       -2140.74517156  G(xTB)=        -135.55371125        !CONF16
O   -1.6013169139   2.3178453326  -0.8490006855
C   -2.7395201045   2.0630024475  -1.2059616242
O   -3.6411098576   3.0227203283  -1.5172660686
C   -3.2837431013   4.3832491978  -1.2598405285
C   -3.7403473109   4.8036349615   0.1317760103
C   -3.3479794800   0.7564508317  -1.3269965510
N   -2.5943024775  -0.3685471387  -1.3069402515
C   -3.2370493743  -1.4908103372  -1.4578815727
C   -2.6551912368  -2.8086914076  -1.3473548610
C   -3.4254414205  -3.9062875643  -1.7463448177
C   -2.9349245433  -5.1924581083  -1.6488128758
C   -1.6621493753  -5.4145721093  -1.1471247038
C   -0.8914088853  -4.3380860568  -0.7386975961
C   -1.3796706352  -3.0500120727  -0.8310949810
H   -2.1988377420   4.4860707747  -1.3667192673
H   -3.7879769555   4.9643329650  -2.0354372974
H   -3.3883195372   5.8076874745   0.3469194526
H   -3.3459898804   4.1094779563   0.8716118637
H   -4.8258427387   4.7853041435   0.1889869512
H   -0.9722542266  -0.1220234778  -0.7931056837
H   -4.2899753982   0.7518548792  -1.8843915991
H   -4.2606436124  -1.4713200162  -1.8497913183
H   -4.4220573658  -3.7385269927  -2.1321779303
H   -3.5487749957  -6.0258471438  -1.9595246161
H   -1.2794804366  -6.4214131173  -1.0665753625
H    0.0978977065  -4.5018165135  -0.3359425962
H   -0.7777522619  -2.2254660212  -0.4913306828
H    2.2419438952   4.8337214729   2.5957910852
C    1.9916404853   3.8342011112   2.3067482874
H    3.6088925143   2.4747074246   2.9627029356
H    0.2616977164   5.2517881329   0.6327583760
C    2.6670639266   2.6689807787   2.4936183505
H   -0.6491544087   4.8963194903   2.1176190569
C   -0.1734846310   4.4591046681   1.2400508668
N    0.8437785310   3.5305661448   1.6390216892
H    6.6104238527   1.4647296047  -1.1292058133
H    6.1680203181   2.5135700030  -3.3159223135
C    5.6033601000   1.4711469937  -1.5197483972
C    5.3526859071   2.0676508596  -2.7655414388
N    1.9180872492   1.6771822115   1.9293411777
H   -0.9185701786   3.9168653391   0.6620942108
C    0.8159765594   2.2241817627   1.4201100686
C    4.5860123011   0.9006557824  -0.8070297817
C    4.0850837522   2.0772846169  -3.2785227152
H    2.4134472603   0.2359089370   4.0487050323
H    4.7808457760   0.4346381391   0.1477851403
H    3.8841337961   2.5296033934  -4.2394189287
C    2.2790795988   0.3062012604   1.9042309631
C    2.5241591966  -0.3290367036   3.1363269506
C    3.2654455404   0.8984669391  -1.3074367057
C    3.0128261431   1.4961217196  -2.5709123461
H    0.0055922102   1.7051296661   0.9431289709
C    2.1900222836   0.3261955331  -0.5908028938
C    1.6987153650   1.4759342328  -3.0856726473
C    2.4111941490  -0.3586392092   0.7065781403
C    2.8781855408  -1.6458907723   3.1642918336
H    1.5142875908   1.9115667270  -4.0572330570
H    3.0631784779  -2.1439844131   4.1035103775
C    0.6739792505   0.9139601325  -2.3815720020
C    0.9078492302   0.3483330401  -1.1134169025
C    2.7631219529  -1.7349108709   0.7241484274
C    2.9967753055  -2.3827498517   1.9662822499
O   -0.0739937136  -0.1835100192  -0.3633617915
H   -0.3330803679   0.8938347471  -2.7711716360
C    2.8815663778  -2.4835392826  -0.4659328279
C    3.3409674690  -3.7506142420   1.9710610629
H    2.6986605545  -1.9927506443  -1.4097223634
H    3.5162612183  -4.2371989245   2.9193293387
C    3.2105941687  -3.8100567949  -0.4267130031
C    3.4441425683  -4.4497447175   0.8007402961
H    3.2894231230  -4.3754461167  -1.3434002889
H    3.7023753541  -5.4982994848   0.8118702189
H   -1.4761779294  -0.2227430222   3.2557773520
C   -3.6937187603  -1.5125892264   1.2240075173
C   -4.7103298789  -0.7748421172   0.5545100145
C   -3.1096138753   0.7010643237   1.3074060164
C   -1.5575931890  -0.9013815373   2.4061727218
C   -4.3415975565   0.5622256112   0.4897780746
N   -2.7242474698  -0.5614855411   1.6316294089
O   -2.5251051642   1.7217833077   1.6456543898
O   -3.6039976781  -2.6993621786   1.5191732283
H   -5.6115860403  -1.2157547194   0.1733030724
H   -0.6608662866  -0.8328452847   1.7891973844
H   -5.0114254689   1.3915085020   0.3366187549
H   -1.6878137323  -1.9270336224   2.7484901970
