115
Energy = 0.00 kcal/mol # From:conf3
O    -0.404052 -2.427469 -1.658199
C    -1.302656 -3.107510 -2.121973
O    -1.077288 -4.138491 -2.964947
C    0.226651 -4.271494 -3.520451
C    0.359644 -3.368351 -4.734669
C    -2.734307 -2.925153 -1.945296
N    -3.217138 -2.124731 -0.960283
C    -4.507396 -2.144449 -0.792664
C    -5.245559 -1.252926 0.103363
C    -4.743729 -0.012966 0.534703
C    -5.493741 0.786414 1.394197
C    -6.757802 0.376365 1.825610
C    -7.274543 -0.843163 1.383483
C    -6.525956 -1.644974 0.525096
H    0.975716 -4.048157 -2.746354
H    0.327013 -5.328191 -3.796143
H    0.101662 -2.331037 -4.467728
H    -0.329448 -3.697113 -5.525427
H    1.383532 -3.399124 -5.134829
H    -2.190478 -1.096105 -0.265182
H    -3.336870 -3.782129 -2.266138
H    -5.091414 -2.960529 -1.242165
H    -3.765994 0.326631 0.191715
H    -5.088800 1.746768 1.720945
H    -7.342359 1.009497 2.495745
H    -8.264679 -1.169492 1.707924
H    -6.930199 -2.599898 0.179245
H    4.339256 0.523891 -2.575159
C    3.312858 0.692399 -2.263026
H    3.079444 2.786115 -1.520525
C    2.702616 1.792885 -1.745807
C    2.578013 -1.675056 -2.767295
N    2.350918 -0.292390 -2.346293
H    4.239042 2.360628 2.592548
H    4.798664 0.184401 3.687429
C    3.546858 1.520625 2.509995
C    3.864333 0.288118 3.133507
N    1.386823 1.442436 -1.518623
C    1.194279 0.173725 -1.886402
C    2.371786 1.670981 1.809598
C    2.988993 -0.769060 3.044280
H    2.130595 2.628619 1.342120
H    3.217624 -1.721712 3.528239
C    0.376274 2.291132 -0.964462
C    -0.015717 3.445537 -1.705265
C    1.454468 0.588307 1.686738
C    1.770807 -0.647554 2.324148
H    0.247417 -0.377900 -1.850666
C    0.241204 0.687898 0.946273
C    0.838550 -1.718405 2.243456
C    -0.163901 1.944768 0.255129
C    -0.947939 4.281733 -1.135412
H    1.049302 -2.642063 2.789830
H    -1.278993 5.169695 -1.678717
C    -0.332460 -1.619055 1.530013
C    -0.611086 -0.403381 0.816520
C    -1.171739 2.794447 0.814152
C    -1.545851 3.980944 0.118180
O    -1.664668 -0.258849 0.025274
C    -1.812780 2.487406 2.045847
C    -2.543667 4.827219 0.676256
H    -1.530159 1.576902 2.576680
H    -2.826474 5.732204 0.134678
C    -2.773861 3.325352 2.560859
C    -3.144493 4.506847 1.869796
H    -3.259107 3.079302 3.506901
H    -3.911987 5.159597 2.288851
H    -2.208033 1.535506 -1.480929
C    -4.676087 -0.119165 -2.864585
C    -4.632500 -1.441099 -3.448352
C    -2.472120 -0.589465 -3.334022
C    -2.928533 1.626762 -2.305520
C    -3.301833 -1.801472 -3.651619
N    -3.320025 0.318853 -2.765932
O    -1.277810 -0.410417 -3.533409
O    -5.605726 0.592821 -2.527357
H    -5.528931 -2.003267 -3.695700
H    -3.835446 2.129806 -1.946651
H    -2.924164 -2.533774 -4.366192
H    -2.480711 2.218115 -3.119708
H    1.645952 -2.424577 -0.354214
C    2.687278 -2.731046 -0.498689
C    3.329196 -2.443801 -1.709269
C    4.654478 -2.837700 -1.904907
H    5.153281 -2.613398 -2.850931
C    5.339826 -3.517946 -0.895567
H    6.375063 -3.824919 -1.053000
C    4.699824 -3.801693 0.310499
H    5.233923 -4.331004 1.101561
C    3.373468 -3.408134 0.506680
H    2.871724 -3.631231 1.450286
H    3.121062 -1.655001 -3.720242
H    1.579985 -2.098556 -2.919730
H    -0.070836 1.751241 -3.833942
C    0.417752 2.704958 -4.061141
C    0.519967 3.696105 -3.070552
C    1.109448 4.925476 -3.388794
H    1.193120 5.696032 -2.619159
C    1.603643 5.160030 -4.672766
H    2.068097 6.119418 -4.906951
C    1.508615 4.169786 -5.650677
H    1.897226 4.352708 -6.654059
C    0.910076 2.945463 -5.342805
H    0.819989 2.172513 -6.108008
H    -1.759028 -5.964905 0.578407
C    -1.995112 -4.989854 1.008929
C    -3.259387 -4.752699 1.552818
H    -4.011689 -5.543868 1.551136
C    -3.557486 -3.504733 2.102580
H    -4.544447 -3.311637 2.527653
C    -2.602214 -2.490854 2.085686
C    -1.333835 -2.718306 1.534924
C    -1.032210 -3.980547 1.010002
H    -0.048286 -4.154112 0.567928
H    -2.844152 -1.503871 2.488689
115
Energy = 0.00 kcal/mol # From:conf1
O    0.167417 -2.270519 -1.186023
C    -0.694478 -2.926180 -1.740909
O    -0.424970 -4.025546 -2.474690
C    0.935735 -4.320786 -2.775613
C    1.296889 -3.735294 -4.129112
C    -2.123197 -2.642083 -1.780719
N    -2.669192 -1.807684 -0.858628
C    -3.968282 -1.736815 -0.842756
C    -4.731646 -0.804929 -0.009622
C    -4.193161 0.401416 0.470056
C    -4.955384 1.238720 1.281394
C    -6.268289 0.897915 1.617275
C    -6.821878 -0.284988 1.122286
C    -6.061720 -1.122815 0.308914
H    1.576654 -3.932556 -1.972727
H    1.016595 -5.415239 -2.783643
H    2.370440 -3.861341 -4.332960
H    1.050419 -2.662954 -4.158080
H    0.731338 -4.233522 -4.928561
H    -1.667540 -0.914193 0.031007
H    -2.733935 -3.465431 -2.167486
H    -4.552755 -2.507005 -1.365822
H    -3.173727 0.681904 0.206323
H    -4.519416 2.170594 1.648967
H    -6.861165 1.556709 2.254492
H    -7.849681 -0.555674 1.371867
H    -6.494167 -2.049940 -0.076655
H    4.943254 0.520768 -1.671549
C    3.920095 0.730294 -1.374281
H    3.805105 2.731444 -0.386002
C    3.369243 1.803218 -0.743421
C    3.020684 -1.474343 -2.232069
N    2.892421 -0.157920 -1.617707
H    4.480982 1.983221 3.946226
H    4.840431 -0.304645 4.885593
C    3.777815 1.183876 3.705754
C    3.981725 -0.112700 4.240475
N    2.022569 1.530363 -0.610090
C    1.755877 0.334937 -1.139166
C    2.701214 1.445039 2.889336
C    3.093176 -1.121261 3.947460
H    2.549938 2.449002 2.485508
H    3.234679 -2.123355 4.360014
C    1.027948 2.391205 -0.047419
C    0.740032 3.617685 -0.717764
C    1.772939 0.417375 2.557819
C    1.973216 -0.884364 3.105889
H    0.776177 -0.150124 -1.201180
C    0.663130 0.634430 1.691584
C    1.025072 -1.903416 2.814305
C    0.374280 1.967612 1.088490
C    -0.215091 4.436451 -0.158747
H    1.140531 -2.881271 3.290514
H    -0.472187 5.376961 -0.651338
C    -0.049051 -1.690462 1.981094
C    -0.198900 -0.404441 1.355770
C    -0.641770 2.811476 1.640575
C    -0.923562 4.061095 1.015257
O    -1.136227 -0.139555 0.456124
C    -1.379492 2.434850 2.796494
C    -1.934257 4.897590 1.565630
H    -1.165774 1.475820 3.271202
H    -2.149310 5.850889 1.078492
C    -2.346803 3.267104 3.308478
C    -2.628818 4.509949 2.686562
H    -2.907356 2.968348 4.195748
H    -3.403109 5.157699 3.100597
H    -2.878530 2.401743 -1.759136
C    -3.739394 0.272180 -2.900241
C    -3.715335 -1.041468 -3.499474
C    -1.530537 -0.347431 -3.107838
C    -1.966550 1.865274 -2.050022
C    -2.397096 -1.495989 -3.538030
N    -2.377998 0.609853 -2.623355
O    -0.311383 -0.249651 -3.162958
O    -4.651591 1.047342 -2.669751
H    -4.610505 -1.536839 -3.865708
H    -1.405802 2.475297 -2.775093
H    -1.987664 -2.249053 -4.211995
H    -1.347148 1.690845 -1.157665
H    2.295670 -1.902947 0.367941
C    3.084491 -2.582343 0.031871
C    3.588853 -2.490090 -1.271309
C    4.574224 -3.384027 -1.695849
H    4.972453 -3.310340 -2.710868
C    5.048674 -4.371478 -0.829300
H    5.817774 -5.067020 -1.169228
C    4.546615 -4.460830 0.468211
H    4.920077 -5.228698 1.147883
C    3.566191 -3.561647 0.897316
H    3.169627 -3.625407 1.912566
H    3.646013 -1.374242 -3.128127
H    2.002792 -1.756834 -2.531255
H    0.919688 2.105316 -2.999394
C    1.414179 3.078325 -3.083212
C    1.406379 3.974687 -2.000664
C    2.010929 5.229372 -2.151820
H    2.012635 5.928315 -1.312703
C    2.621398 5.581882 -3.356333
H    3.093302 6.560601 -3.458243
C    2.631813 4.684623 -4.424190
H    3.110421 4.958072 -5.366024
C    2.023518 3.435155 -4.284790
H    2.015666 2.734235 -5.121044
H    -1.418683 -5.931018 0.595381
C    -1.696606 -4.970489 1.033322
C    -3.025909 -4.717605 1.380993
H    -3.787557 -5.482545 1.219464
C    -3.377525 -3.485334 1.933767
H    -4.415666 -3.277859 2.201043
C    -2.407732 -2.502339 2.121043
C    -1.073478 -2.746391 1.770207
C    -0.723261 -3.993086 1.236849
H    0.314323 -4.171586 0.943407
H    -2.689877 -1.525165 2.522503
115
Energy = 0.00 kcal/mol # From:conf2
O    0.058233 -2.358325 -0.189089
C    -0.721275 -2.977865 -0.891075
O    -0.363225 -4.095391 -1.550696
C    0.977195 -4.549985 -1.402874
C    1.089014 -5.898549 -2.074990
C    -2.104055 -2.638051 -1.195312
N    -2.778799 -1.747133 -0.425029
C    -4.055270 -1.639144 -0.658966
C    -4.935735 -0.633420 -0.061828
C    -4.461270 0.561112 0.507532
C    -5.352368 1.485123 1.047898
C    -6.728581 1.245876 1.021593
C    -7.211828 0.072398 0.438865
C    -6.322439 -0.852992 -0.102605
H    1.656558 -3.819133 -1.866639
H    1.223320 -4.609445 -0.331155
H    0.410034 -6.622374 -1.604038
H    2.117005 -6.275284 -1.989804
H    0.832379 -5.819690 -3.140238
H    -1.907092 -0.805981 0.573242
H    -2.666144 -3.446674 -1.675570
H    -4.555487 -2.417763 -1.252469
H    -3.391730 0.770101 0.521286
H    -4.964354 2.408099 1.484705
H    -7.421878 1.975421 1.444195
H    -8.285589 -0.120621 0.403643
H    -6.702529 -1.769780 -0.560693
H    5.128639 0.092772 0.145105
C    4.076780 0.361239 0.165582
H    3.855734 2.537286 0.615707
C    3.458681 1.551875 0.391125
C    3.289762 -1.976493 -0.396603
N    3.080503 -0.569693 -0.049176
H    3.958703 2.090121 4.865818
H    4.091933 -0.135096 5.998303
C    3.232702 1.313331 4.618972
C    3.308834 0.053335 5.262463
N    2.100622 1.316385 0.296892
C    1.894124 0.024492 0.025744
C    2.248292 1.567923 3.690998
C    2.389954 -0.925822 4.961499
H    2.192023 2.546113 3.206947
H    2.432716 -1.899060 5.456540
C    1.061042 2.273966 0.532287
C    0.978528 3.420964 -0.312776
C    1.291292 0.569593 3.351330
C    1.366152 -0.696514 4.004030
H    0.925999 -0.457302 -0.149165
C    0.281901 0.773763 2.366355
C    0.392666 -1.688015 3.696131
C    0.186913 2.030965 1.571900
C    -0.001219 4.347986 -0.034565
H    0.417754 -2.634756 4.242332
H    -0.103552 5.229015 -0.672281
C    -0.596972 -1.477339 2.765125
C    -0.609654 -0.239302 2.036449
C    -0.860850 2.974530 1.815531
C    -0.938307 4.150426 1.014563
O    -1.434607 -0.011473 1.023056
C    -1.837598 2.762986 2.826823
C    -1.985246 5.083697 1.253800
H    -1.780698 1.858987 3.434831
H    -2.040002 5.981316 0.634677
C    -2.839657 3.681170 3.033039
C    -2.915102 4.853789 2.238996
H    -3.585437 3.505716 3.809916
H    -3.717611 5.572417 2.412513
H    -1.054580 2.411602 -2.254998
C    -3.414095 0.268896 -2.729982
C    -3.295323 -1.072935 -3.257254
C    -1.225160 -0.384152 -2.458580
C    -1.798737 1.885906 -1.636059
C    -2.004069 -1.536851 -3.023838
N    -2.130859 0.603934 -2.201797
O    -0.021037 -0.299910 -2.255440
O    -4.339128 1.061499 -2.722333
H    -4.110097 -1.575083 -3.772185
H    -1.398421 1.756176 -0.620810
H    -1.479998 -2.323748 -3.566676
H    -2.724338 2.473981 -1.595909
H    1.961232 -1.245759 -2.655503
C    2.947048 -1.673846 -2.871445
C    3.764727 -2.119680 -1.823508
C    5.007782 -2.688483 -2.107055
H    5.642296 -3.038913 -1.289414
C    5.439914 -2.811350 -3.430162
H    6.412862 -3.256875 -3.644780
C    4.629835 -2.360838 -4.471242
H    4.967481 -2.453220 -5.505099
C    3.383137 -1.794170 -4.189664
H    2.744402 -1.448711 -5.004641
H    2.319379 -2.467349 -0.240162
H    4.019762 -2.391893 0.309356
H    1.437563 1.595406 -2.276057
C    1.998825 2.524377 -2.420770
C    1.865589 3.574894 -1.497142
C    2.546268 4.777793 -1.725335
H    2.446820 5.596436 -1.009248
C    3.358264 4.926945 -2.850487
H    3.886910 5.867149 -3.016709
C    3.498272 3.875187 -3.756410
H    4.136370 3.990027 -4.634272
C    2.814439 2.676606 -3.540086
H    2.909448 1.854952 -4.251972
H    -2.144759 -5.730320 1.614797
C    -2.390492 -4.709325 1.913902
C    -3.725707 -4.318197 2.037108
H    -4.525348 -5.033436 1.836044
C    -4.033927 -3.011480 2.418661
H    -5.074895 -2.695768 2.511964
C    -3.011958 -2.094873 2.654532
C    -1.669324 -2.476101 2.523028
C    -1.367608 -3.795133 2.163219
H    -0.322333 -4.086841 2.042357
H    -3.255654 -1.063227 2.922048
115
Energy = 0.00 kcal/mol # From:conf4
O    0.082761 -2.483289 -0.298136
C    -0.774758 -3.130494 -0.868341
O    -0.547989 -4.359035 -1.373893
C    0.794371 -4.835552 -1.387406
C    1.482300 -4.390896 -2.664262
C    -2.138167 -2.704691 -1.174551
N    -2.703032 -1.696843 -0.457819
C    -3.968731 -1.480859 -0.670794
C    -4.719170 -0.331724 -0.161117
C    -4.100932 0.791487 0.415557
C    -4.864781 1.874665 0.842943
C    -6.254486 1.865258 0.697767
C    -6.876946 0.760624 0.112596
C    -6.114594 -0.323019 -0.317371
H    1.317839 -4.471892 -0.491986
H    0.723985 -5.928896 -1.327923
H    1.411769 -3.297722 -2.768320
H    1.002634 -4.850927 -3.539591
H    2.545516 -4.672776 -2.658349
H    -1.684957 -0.881711 0.539900
H    -2.782726 -3.509335 -1.546640
H    -4.561505 -2.241821 -1.197600
H    -3.017491 0.818217 0.525513
H    -4.364187 2.737429 1.289012
H    -6.848625 2.717176 1.033513
H    -7.961218 0.744940 -0.012132
H    -6.603490 -1.182503 -0.783351
H    5.138583 -0.029438 -0.137997
C    4.093090 0.248490 -0.043582
H    3.927099 2.367694 0.642001
C    3.505317 1.415638 0.333919
C    3.254707 -1.989491 -0.860112
N    3.073191 -0.636951 -0.327097
H    3.765652 2.324731 5.209986
H    3.944844 0.126271 6.383118
C    3.119275 1.498345 4.908430
C    3.221203 0.251778 5.576347
N    2.141843 1.210805 0.264389
C    1.900609 -0.040846 -0.136602
C    2.212236 1.676334 3.888863
C    2.405103 -0.792138 5.207414
H    2.137705 2.641961 3.382716
H    2.471059 -1.756869 5.716201
C    1.135106 2.192797 0.538943
C    1.045952 3.327462 -0.322739
C    1.357341 0.611229 3.483964
C    1.457511 -0.640259 4.159236
H    0.918193 -0.492182 -0.315893
C    0.418250 0.738372 2.422707
C    0.585829 -1.695628 3.778083
C    0.303968 1.987344 1.617853
C    0.095218 4.278051 -0.024098
H    0.635388 -2.637161 4.331317
H    -0.009300 5.155289 -0.666623
C    -0.341243 -1.564453 2.767593
C    -0.391393 -0.325698 2.040412
C    -0.699999 2.965471 1.900623
C    -0.792509 4.124477 1.075978
O    -1.159496 -0.120864 0.975853
C    -1.603086 2.814585 2.988674
C    -1.788655 5.098695 1.365050
H    -1.531065 1.922797 3.613612
H    -1.861229 5.981630 0.726860
C    -2.547728 3.778884 3.249851
C    -2.642753 4.931631 2.429173
H    -3.233410 3.656659 4.089828
H    -3.401114 5.685733 2.645544
H    -0.853758 2.194409 -2.544912
C    -3.279070 0.115696 -2.920237
C    -3.259504 -1.265965 -3.334450
C    -1.129633 -0.658659 -2.626318
C    -1.567253 1.674261 -1.886786
C    -1.999450 -1.804706 -3.064176
N    -1.964172 0.402185 -2.432031
O    0.084001 -0.639409 -2.459510
O    -4.145313 0.972176 -2.965426
H    -4.114722 -1.755231 -3.793187
H    -1.111345 1.531656 -0.894740
H    -1.540550 -2.661288 -3.560404
H    -2.476026 2.281590 -1.787126
H    5.687300 -2.986237 -1.603489
C    5.165339 -2.500581 -2.431683
C    3.903658 -1.940921 -2.222869
C    3.235111 -1.318909 -3.286199
H    2.234031 -0.904428 -3.124902
C    3.831324 -1.261678 -4.544090
H    3.304211 -0.785812 -5.373280
C    5.095654 -1.822450 -4.750722
H    5.559257 -1.776351 -5.737865
C    5.760575 -2.443979 -3.695086
H    6.746593 -2.884982 -3.850651
H    2.249659 -2.432887 -0.893023
H    3.870131 -2.555546 -0.148963
H    1.428822 1.500441 -2.328314
C    2.027037 2.409435 -2.451318
C    1.928407 3.454112 -1.515742
C    2.671048 4.623884 -1.720922
H    2.605753 5.436225 -0.993828
C    3.506151 4.747413 -2.832335
H    4.082947 5.662667 -2.975970
C    3.609827 3.701944 -3.749743
H    4.267230 3.795665 -4.615775
C    2.865643 2.535521 -3.557074
H    2.934923 1.716398 -4.275005
H    -1.308093 -6.015239 1.768599
C    -1.693772 -5.012967 1.964732
C    -3.070706 -4.772057 1.934281
H    -3.764141 -5.586480 1.716467
C    -3.553480 -3.487964 2.182439
H    -4.626549 -3.288734 2.156939
C    -2.666032 -2.443535 2.442247
C    -1.285252 -2.672690 2.467873
C    -0.809596 -3.972380 2.237991
H    0.267662 -4.152174 2.240129
H    -3.050597 -1.433793 2.609496
115
Energy = 0.00 kcal/mol # From:conf10
O    -0.075126 -2.347668 -1.128805
C    -0.943979 -2.821050 -1.846801
O    -0.686541 -3.748561 -2.782116
C    0.635580 -4.278900 -2.870810
C    0.861586 -5.366072 -1.841751
C    -2.350367 -2.424796 -1.874299
N    -2.789660 -1.602473 -0.886930
C    -4.062445 -1.376410 -0.823531
C    -4.632227 -0.309111 0.004574
C    -3.808249 0.589690 0.703217
C    -4.367398 1.648800 1.413119
C    -5.754069 1.826823 1.442620
C    -6.579323 0.937796 0.751665
C    -6.020967 -0.118040 0.033017
H    0.721095 -4.665951 -3.893724
H    1.363126 -3.469385 -2.740006
H    0.754278 -4.955186 -0.828269
H    1.878236 -5.772756 -1.944712
H    0.136750 -6.182163 -1.974739
H    -0.799126 -1.118876 0.197968
H    -3.024756 -3.170752 -2.315534
H    -4.777549 -2.000628 -1.383608
H    -2.726560 0.450635 0.662149
H    -3.714237 2.347438 1.940093
H    -6.188847 2.661352 1.996201
H    -7.662255 1.075100 0.764186
H    -6.665846 -0.801504 -0.525314
H    4.945680 0.238891 -0.941553
C    3.913414 0.533884 -0.778138
H    3.839138 2.345704 0.528832
C    3.375890 1.558522 -0.058428
C    2.936853 -1.319407 -2.220761
N    2.856050 -0.159702 -1.329301
H    3.523983 2.814101 5.327505
H    4.006624 0.634018 6.450355
C    3.062598 1.899218 4.951517
C    3.337675 0.662817 5.589145
N    2.004483 1.453291 -0.184075
C    1.714809 0.403377 -0.953746
C    2.219777 1.957202 3.865475
C    2.758742 -0.493306 5.122015
H    2.013551 2.915427 3.383700
H    2.960122 -1.452164 5.605122
C    1.032082 2.370578 0.341063
C    0.770591 3.567044 -0.390442
C    1.606478 0.775119 3.360519
C    1.883793 -0.466173 4.001541
H    0.719779 0.080251 -1.270770
C    0.733486 0.783103 2.234481
C    1.257166 -1.642217 3.515858
C    0.411752 2.054448 1.529174
C    -0.151538 4.444336 0.135815
H    1.437408 -2.580277 4.046211
H    -0.383041 5.367181 -0.400844
C    0.398354 -1.636971 2.436500
C    0.161363 -0.389727 1.763024
C    -0.555369 2.963943 2.060336
C    -0.834907 4.168127 1.350917
O    -0.623355 -0.279837 0.680529
C    -1.237051 2.704217 3.281790
C    -1.797587 5.072518 1.879711
H    -1.025958 1.778993 3.820330
H    -2.014604 5.989559 1.328404
C    -2.151213 3.605109 3.774766
C    -2.437349 4.799178 3.065068
H    -2.669034 3.396548 4.712175
H    -3.171139 5.500927 3.464395
H    -2.895880 2.529370 -1.377684
C    -3.802854 0.623912 -2.862374
C    -3.808638 -0.645790 -3.540302
C    -1.620189 -0.098453 -2.982932
C    -1.997604 2.028351 -1.759960
C    -2.513638 -1.172258 -3.532231
N    -2.435368 0.879429 -2.507931
O    -0.393362 -0.083127 -2.935668
O    -4.683855 1.431339 -2.617743
H    -4.709253 -1.084375 -3.962058
H    -1.428397 2.733048 -2.386902
H    -2.099409 -1.892286 -4.239434
H    -1.372064 1.710296 -0.910224
H    5.280863 -2.507427 -2.910610
C    4.818676 -2.983824 -2.042633
C    3.603805 -2.497197 -1.552650
C    3.007035 -3.111652 -0.442966
H    2.037221 -2.754373 -0.080905
C    3.629542 -4.202108 0.161431
H    3.158905 -4.693260 1.014471
C    4.844843 -4.685756 -0.330056
H    5.324576 -5.541487 0.147945
C    5.439391 -4.076900 -1.434045
H    6.387345 -4.450967 -1.824151
H    3.489540 -1.016147 -3.119229
H    1.896451 -1.537784 -2.501689
H    0.805365 2.072821 -2.707091
C    1.405033 2.985820 -2.764125
C    1.475990 3.863096 -1.669033
C    2.213028 5.048416 -1.792757
H    2.275650 5.731012 -0.942508
C    2.874011 5.351325 -2.983366
H    3.447532 6.276254 -3.063582
C    2.803633 4.473646 -4.065322
H    3.318656 4.710716 -4.997773
C    2.065840 3.293531 -3.952943
H    1.993205 2.609922 -4.800645
H    0.393011 -6.227252 1.656976
C    -0.179759 -5.297803 1.656666
C    -1.523402 -5.301887 1.274344
H    -2.006402 -6.233950 0.976140
C    -2.243562 -4.107697 1.279457
H    -3.294900 -4.096324 0.984938
C    -1.628958 -2.914120 1.657202
C    -0.274181 -2.894081 2.016267
C    0.438393 -4.103372 2.017592
H    1.492438 -4.099390 2.302630
H    -2.211478 -1.991364 1.658631
