85
CONF19
O 0.8646158841 -2.5189785744 -0.7680446631
C 2.0599398954 -2.7070394049 -0.9582707710
O 2.5281638964 -3.7167661353 -1.7300123992
C 1.5188338457 -4.5543313310 -2.3550047187
C 2.2405499113 -5.6313560398 -3.1268185979
C 3.1615107311 -1.9037578891 -0.4208494532
N 2.8225192502 -0.9519083639 0.5021357311
C 3.8114707014 -0.3704764577 1.1189942201
C 3.6192929237 0.7823581012 1.9871254484
C 2.4098003727 1.4977705455 2.0257330568
C 2.2690780005 2.6022614477 2.8546521524
C 3.3317822650 3.0274358835 3.6545656077
C 4.5422715243 2.3379763539 3.6109062193
C 4.6852888110 1.2296783277 2.7839257190
H 0.8762660229 -4.9760406765 -1.5744856756
H 0.8996427828 -3.9304009534 -3.0080977062
H 1.5056184826 -6.2837524183 -3.6091252720
H 2.8587325916 -6.2437966962 -2.4634620738
H 2.8784728482 -5.2001856155 -3.9041283972
H 0.0667663352 -0.2890616907 -2.4222555612
H 4.1076934084 -2.4459689023 -0.3127548376
H 4.8297202682 -0.7792711503 1.0825097446
H 1.5929624351 1.1839995811 1.3837779220
H 1.3313206574 3.1501837430 2.8669554360
H 3.2197778761 3.8964525135 4.2955841075
H 5.3785144310 2.6679905408 4.2202994522
H 5.6328739870 0.6979853208 2.7471105514
H -0.6144464746 -1.4380632227 4.7021975691
C -0.7095068886 -0.9850477928 3.7282029473
H -2.0580393980 0.7763163118 3.8486589185
H 1.7515662407 -2.3879702024 3.1424533151
C -1.4108812865 0.1003126689 3.3135420382
H 1.0379717648 -2.9410020831 1.6010856527
C 0.8243984178 -2.6575354029 2.6305388248
N -0.0743492601 -1.5038000032 2.6182622358
H -6.0364101645 -1.5060943572 2.1973918734
H -6.1960890276 -3.7852276978 1.2144430845
C -5.3562917618 -1.7975462204 1.4024821544
C -5.4490846079 -3.0896871108 0.8449724180
N -1.1937071742 0.2250130327 1.9497942365
H 0.3340459779 -3.4799769618 3.1555447403
C -0.3723174359 -0.7635129048 1.5491592815
C -4.4160340818 -0.9015103349 0.9465430016
C -4.5950803558 -3.4619302668 -0.1679939985
H -1.0512534567 2.7477059648 2.5836754167
H -4.3581514593 0.0926374376 1.3797721507
H -4.6598277539 -4.4536572443 -0.6080694995
C -1.7336281814 1.2831403302 1.1486140215
C -1.5889138413 2.5925147290 1.6545638007
C -3.5160293196 -1.2571314984 -0.0898929629
C -3.6146374096 -2.5682520132 -0.6587339196
H 0.0335104489 -0.9293752183 0.5575792122
C -2.5176694757 -0.3675328879 -0.5711883333
C -2.7274338406 -2.9293515900 -1.7035294904
C -2.3836857887 1.0106481877 -0.0388245695
C -2.1094728980 3.6504313252 0.9584704419
H -2.8112833003 -3.9205070290 -2.1412835492
H -1.9951449765 4.6622084969 1.3354136607
C -1.7744358367 -2.0573911933 -2.1582262231
C -1.6557239547 -0.7698697762 -1.5826995611
C -2.9308423877 2.1103541074 -0.7682727112
C -2.7948533489 3.4415301296 -0.2613206357
O -0.7319727620 0.1192975528 -1.9954490902
H -1.0879693307 -2.3426317568 -2.9483672042
C -3.6309570648 1.9171404956 -1.9842958207
C -3.3501946692 4.5202018289 -0.9911052599
H -3.7415847584 0.9106532391 -2.3737484050
H -3.2364497470 5.5267271208 -0.5985426322
C -4.1637194548 2.9854690654 -2.6660084045
C -4.0214383506 4.2980515155 -2.1691902525
H -4.6982652752 2.8191047851 -3.5960910971
H -4.4453488848 5.1311988558 -2.7210069969
H 1.3502852110 2.2552707395 -2.9740210501
C 4.0667316312 1.4169411206 -1.3215341341
C 4.7680893606 0.1823673925 -1.4615661683
C 2.6266227578 -0.0902869682 -2.3217633465
C 1.7197768528 2.2054924409 -1.9440873403
C 3.8961227181 -0.7918515294 -1.9721479146
N 2.7201809908 1.1683567997 -1.8108048341
O 1.6643393209 -0.5555675256 -2.9532136337
O 4.4137281791 2.5336304092 -0.9426460874
H 5.8129238608 0.0668498361 -1.2111684488
H 2.1929159738 3.1548002855 -1.6808024108
H 4.1955919440 -1.6431733888 -2.5736463125
H 0.8683691727 2.0313112793 -1.2786213707
