85
CONF7
O 0.8234912048 -2.4461290053 0.0128672575
C 1.7103721105 -2.5672479291 -0.8209305093
O 1.6960032753 -3.5208981781 -1.7820560505
C 0.5284104424 -4.3859809201 -1.8127256523
C 0.7700428938 -5.4330906929 -2.8720386997
C 2.9110922144 -1.7297435470 -0.9673798799
N 3.2308293545 -0.9177076143 0.0932915874
C 4.4220820722 -0.3966942605 0.0831962946
C 4.8185207981 0.6467647997 1.0184943057
C 3.9180313933 1.2055494876 1.9420616307
C 4.3214423861 2.2209326223 2.7973933067
C 5.6285220072 2.7106246075 2.7458704376
C 6.5278890547 2.1723481781 1.8275980579
C 6.1269428084 1.1522985805 0.9718996978
H 0.3928438970 -4.8332011625 -0.8222680296
H -0.3441943451 -3.7674956897 -2.0387032944
H -0.0956072121 -6.1013296369 -2.9219169125
H 1.6539254390 -6.0347302509 -2.6389851030
H 0.9061961862 -4.9749273722 -3.8563125048
H -0.9251188833 -0.7752523256 -1.7409421425
H 3.7189373893 -2.2266694580 -1.5159630008
H 5.1972141533 -0.7448929243 -0.6112190609
H 2.8994672347 0.8343032789 1.9737147610
H 3.6129843294 2.6422686179 3.5052939416
H 5.9395822330 3.5090405886 3.4125635583
H 7.5438952110 2.5521941634 1.7754080886
H 6.8276983936 0.7403009443 0.2503192712
H -0.0160642424 0.9243013878 4.6418854637
C -0.2694918603 0.8608035711 3.5956311515
H -1.6649248691 2.5068581399 3.0613776934
H 1.9264203704 -0.7941366206 3.8136756820
C -1.0727939210 1.6380401096 2.8229219265
H 1.5481492372 -1.6766170654 2.3037494460
C 1.1284854729 -1.2149817912 3.1990926412
N 0.2304734228 -0.1369719106 2.7819808449
H -5.3707348457 0.6408260606 3.6734654115
H -5.8785273231 -1.7224531940 4.2663003112
C -4.9701072318 -0.1651208609 3.0657269319
C -5.2636820331 -1.5021864719 3.3993534503
N -1.0541055864 1.0947838160 1.5479740457
H 0.5651249053 -1.9523726868 3.7769915083
C -0.2515265212 0.0164564057 1.5486009617
C -4.1867090185 0.1329169449 1.9735061743
C -4.7815729016 -2.5211588831 2.6110210751
H -0.9503514132 3.5891834407 0.7801723893
H -3.9878764535 1.1705407248 1.7270725524
H -5.0151348101 -3.5571761106 2.8418520853
C -1.7529300714 1.6187010661 0.4132340569
C -1.5890531220 2.9901438504 0.1402544979
C -3.6467198852 -0.8934317398 1.1566261067
C -3.9792206264 -2.2483894488 1.4787059888
H 0.0143033235 -0.6006833679 0.6988271227
C -2.8174643102 -0.6202924113 0.0234645479
C -3.5170095638 -3.2845360062 0.6313746751
C -2.5489971775 0.7897519410 -0.3544247511
C -2.2059890604 3.5398324624 -0.9515881207
H -3.7878599502 -4.3111543027 0.8620018671
H -2.0727794113 4.5922417879 -1.1831179418
C -2.7393905195 -3.0057827217 -0.4583848672
C -2.3574141821 -1.6749031902 -0.7583387060
C -3.1983058355 1.3581528146 -1.4944530108
C -3.0095658125 2.7442725526 -1.8006020207
O -1.5788648485 -1.5103386258 -1.8514841761
H -2.3837563838 -3.7990375024 -1.1067253469
C -4.0533904468 0.5952466531 -2.3278806694
C -3.6481998532 3.2971689781 -2.9371120197
H -4.2228228634 -0.4499347365 -2.0950920141
H -3.4892495949 4.3480451802 -3.1617862075
C -4.6629667589 1.1638063368 -3.4208572807
C -4.4544462294 2.5230347425 -3.7351860569
H -5.3116137377 0.5614697898 -4.0492866755
H -4.9390992635 2.9552432865 -4.6049686502
H 1.2653653256 2.4514274968 0.2057216253
C 3.6101233286 1.5683288321 -2.0217229733
C 3.6945389897 0.3126518856 -2.6750568404
C 1.5708920879 0.5023076144 -1.7423619318
C 1.7538604742 2.7582604828 -0.7236287111
C 2.5178323751 -0.4340543493 -2.4336323705
N 2.2797502981 1.6086536768 -1.4199397696
O 0.3651000394 0.3423942836 -1.4879120093
O 4.3707271452 2.5337494544 -1.9425835576
H 4.5690604974 -0.0140345910 -3.2203784609
H 1.0266008830 3.3035322213 -1.3378829331
H 2.0988645098 -1.1511339723 -3.1341327959
H 2.5921206246 3.4205310784 -0.4932392432
