85
Energy = 0.00 kcal/mol
O    -1.472063 2.313391 -0.915711
C    -2.641513 2.090400 -1.150971
O    -3.552532 3.070669 -1.303462
C    -3.104507 4.417068 -1.171958
C    -4.157407 5.318784 -1.774525
C    -3.288795 0.780748 -1.244958
N    -2.525025 -0.339681 -1.329848
C    -3.173369 -1.464966 -1.482830
C    -2.583213 -2.803262 -1.391837
C    -3.334018 -3.892510 -1.863848
C    -2.843194 -5.193014 -1.777865
C    -1.591864 -5.431320 -1.206383
C    -0.844219 -4.358181 -0.716656
C    -1.333717 -3.057622 -0.800123
H    -2.957189 4.639392 -0.103751
H    -2.133221 4.525095 -1.675670
H    -3.852764 6.369260 -1.676592
H    -5.120389 5.185069 -1.262906
H    -4.293332 5.090903 -2.840607
H    -1.039421 -0.180872 -0.820844
H    -4.272589 0.789010 -1.726916
H    -4.212778 -1.431611 -1.836707
H    -4.315852 -3.710046 -2.307622
H    -3.439933 -6.024892 -2.156241
H    -1.205277 -6.449419 -1.134859
H    0.129591 -4.533004 -0.253549
H    -0.746421 -2.234354 -0.394633
H    1.897950 4.796827 2.738279
C    1.712510 3.772291 2.431089
H    3.385388 2.467847 3.130294
H    -0.588321 5.103777 2.027019
C    2.439064 2.637285 2.625705
H    -1.402430 3.702969 1.233149
C    -0.487491 4.301369 1.288826
N    0.588608 3.413045 1.718137
H    6.663290 1.253769 -0.894823
H    6.330984 2.259504 -3.158431
C    5.664314 1.278691 -1.333682
C    5.477476 1.848532 -2.617429
N    1.739859 1.611833 2.018818
H    -0.251823 4.716494 0.301857
C    0.622831 2.108220 1.473278
C    4.599117 0.756224 -0.636442
C    4.220674 1.878017 -3.176579
H    2.076729 0.160871 4.186797
H    4.752845 0.318095 0.352057
H    4.063910 2.311610 -4.166992
C    2.111969 0.226854 2.016643
C    2.239059 -0.414665 3.274432
C    3.286353 0.778756 -1.187998
C    3.100493 1.346602 -2.483758
H    -0.147566 1.545127 0.940139
C    2.157209 0.253194 -0.494768
C    1.792089 1.358626 -3.048640
C    2.296004 -0.431976 0.820039
C    2.535533 -1.750821 3.321937
H    1.655838 1.786425 -4.044343
H    2.628068 -2.260955 4.282192
C    0.716890 0.855694 -2.366703
C    0.893544 0.297195 -1.066214
C    2.586203 -1.835634 0.863862
C    2.704813 -2.496204 2.121992
O    -0.119333 -0.182776 -0.352930
H    -0.288030 0.878825 -2.788836
C    2.747440 -2.596143 -0.328134
C    2.983183 -3.890195 2.150842
H    2.648563 -2.095688 -1.292283
H    3.071030 -4.386536 3.119297
C    3.016161 -3.943038 -0.268043
C    3.135872 -4.598307 0.983170
H    3.133109 -4.514355 -1.190131
H    3.348655 -5.667857 1.015207
H    -1.463519 -1.828082 3.073852
C    -3.449971 -1.580717 1.390904
C    -4.515197 -0.857677 0.727771
C    -2.895278 0.651047 1.434333
C    -1.267320 -0.925688 2.481262
C    -4.168056 0.491049 0.661292
N    -2.453072 -0.614650 1.720082
O    -2.331258 1.685585 1.758871
O    -3.332982 -2.752987 1.697192
H    -5.447748 -1.330494 0.432554
H    -1.039365 -0.082098 3.148568
H    -4.846961 1.339709 0.579970
H    -0.404384 -1.103696 1.822073
