85
Energy = 0.00 kcal/mol
O    -1.975195 1.868195 -1.895827
C    -3.179716 1.722710 -1.746941
O    -4.037074 2.737399 -1.902807
C    -3.496888 4.000952 -2.302170
C    -3.298749 4.054433 -3.804008
C    -3.839545 0.488176 -1.332348
N    -3.040289 -0.607293 -1.227425
C    -3.587779 -1.751580 -0.988104
C    -2.779761 -2.927710 -0.644066
C    -3.408749 -4.140461 -0.332206
C    -2.656649 -5.266230 0.000368
C    -1.264089 -5.191040 0.032411
C    -0.628573 -3.979152 -0.259261
C    -1.377007 -2.854530 -0.590199
H    -4.233925 4.743002 -1.972311
H    -2.552708 4.169961 -1.767384
H    -2.953815 5.053861 -4.103183
H    -4.244545 3.841216 -4.321663
H    -2.548613 3.316724 -4.119612
H    -0.877924 0.736977 -1.225019
H    -4.888740 0.396067 -1.642068
H    -4.676876 -1.897409 -1.066038
H    -4.499236 -4.196553 -0.349610
H    -3.159880 -6.205845 0.235440
H    -0.673976 -6.072752 0.287227
H    0.460887 -3.913406 -0.229662
H    -0.889121 -1.902173 -0.809597
H    2.196499 4.078109 3.615062
C    1.918046 3.173844 3.082533
H    3.472667 1.603864 3.411034
H    -1.098841 3.712071 1.654305
C    2.540283 1.966137 2.987251
H    0.201661 4.956645 1.547424
C    -0.227846 4.150403 2.153503
N    0.764348 3.092271 2.331401
H    6.827424 1.233655 -0.254226
H    6.796009 3.017009 -2.005439
C    5.881978 1.516351 -0.720570
C    5.865917 2.529664 -1.710685
N    1.749181 1.175843 2.174735
H    -0.514960 4.535515 3.138349
C    0.682027 1.882674 1.787391
C    4.719698 0.884981 -0.342478
C    4.675659 2.892096 -2.296767
H    1.894069 -0.865426 3.845682
H    4.749021 0.103426 0.419281
H    4.646519 3.671935 -3.060208
C    2.031047 -0.178319 1.789968
C    2.094969 -1.155854 2.813445
C    3.472544 1.234364 -0.937519
C    3.458583 2.260668 -1.926903
H    -0.147634 1.534064 1.163504
C    2.246418 0.595890 -0.576752
C    2.215651 2.626134 -2.515690
C    2.246032 -0.473420 0.459409
C    2.403055 -2.450808 2.487252
H    2.201182 3.421134 -3.264093
H    2.462439 -3.215737 3.263057
C    1.047930 2.007335 -2.159444
C    1.056360 0.966553 -1.184520
C    2.545652 -1.830454 0.110767
C    2.646882 -2.817833 1.134259
O    -0.066604 0.336505 -0.815304
H    0.094047 2.295841 -2.599683
C    2.774278 -2.213778 -1.240619
C    2.995424 -4.150573 0.779155
H    2.685011 -1.460857 -2.025111
H    3.076181 -4.898869 1.569455
C    3.104653 -3.511406 -1.553606
C    3.224031 -4.488938 -0.533794
H    3.277202 -3.792590 -2.593697
H    3.492330 -5.513331 -0.797066
H    -1.508167 -1.776739 2.498595
C    -3.880677 -1.116875 1.787313
C    -4.925506 -0.360159 1.154639
C    -2.969801 0.899583 1.143199
C    -1.402161 -0.736400 2.166097
C    -4.386320 0.824915 0.645385
N    -2.699592 -0.300177 1.720770
O    -2.179578 1.831601 1.032836
O    -3.871394 -2.201569 2.347504
H    -5.950470 -0.714689 1.085878
H    -1.035586 -0.123247 3.006603
H    -4.925331 1.751094 0.442916
H    -0.681582 -0.697070 1.334653
