          85
 
O      -1.9632970      1.8772759     -1.8894212
C      -3.1729156      1.7156606     -1.7628449
O      -4.0352500      2.7360471     -1.9052645
C      -3.4966648      3.9989924     -2.3010599
C      -3.2983358      4.0553288     -3.8033633
C      -3.8190566      0.4758583     -1.4087282
N      -3.0424128     -0.6088588     -1.2395815
C      -3.5909041     -1.7553453     -0.9873475
C      -2.7820755     -2.9262193     -0.6404229
C      -3.4084845     -4.1417980     -0.3297846
C      -2.6556143     -5.2672447      0.0007627
C      -1.2629197     -5.1923060      0.0326959
C      -0.6291749     -3.9792385     -0.2587597
C      -1.3779374     -2.8545889     -0.5882923
H      -4.2336258      4.7414725     -1.9710512
H      -2.5521535      4.1695314     -1.7672711
H      -2.9531789      5.0546841     -4.1028631
H      -4.2440070      3.8417349     -4.3212764
H      -2.5482903      3.3173398     -4.1188438
H      -0.8790228      0.7495236     -1.2248625
H      -4.8937625      0.3967894     -1.6276620
H      -4.6795432     -1.9015464     -1.0746357
H      -4.4989658     -4.1996570     -0.3481914
H      -3.1587438     -6.2074590      0.2342429
H      -0.6721454     -6.0739407      0.2860847
H       0.4603761     -3.9127148     -0.2307645
H      -0.8896857     -1.9027540     -0.8092195
H       2.1959548      4.0779572      3.6154117
C       1.9177019      3.1737615      3.0826572
H       3.4721769      1.6036755      3.4114744
H      -1.0985483      3.7131299      1.6530224
C       2.5399477      1.9660340      2.9874169
H       0.2021222      4.9570872      1.5475702
C      -0.2277001      4.1506446      2.1531283
N       0.7642688      3.0923392      2.3310994
H       6.8273865      1.2335384     -0.2540499
H       6.7962206      3.0169364     -2.0052597
C       5.8820036      1.5162974     -0.7205035
C       5.8661062      2.5295948     -1.7105576
N       1.7491461      1.1758538      2.1745887
H      -0.5153753      4.5353219      3.1379729
C       0.6823775      1.8829080      1.7866582
C       4.7196186      0.8848943     -0.3425468
C       4.6758071      2.8919990     -2.2966749
H       1.8943732     -0.8653264      3.8457021
H       4.7489840      0.1032980      0.4191870
H       4.6466470      3.6718524     -3.0601151
C       2.0310347     -0.1783651      1.7898205
C       2.0949919     -1.1558181      2.8134159
C       3.4724726      1.2341914     -0.9376426
C       3.4587890      2.2605985     -1.9269312
H      -0.1448070      1.5343829      1.1598080
C       2.2460822      0.5958809     -0.5769436
C       2.2159206      2.6262641     -2.5158762
C       2.2458395     -0.4734011      0.4592034
C       2.4030564     -2.4507984      2.4872375
H       2.2017800      3.4212892     -3.2642875
H       2.4625685     -3.2157026      3.2630646
C       1.0481657      2.0078834     -2.1597466
C       1.0558681      0.9669626     -1.1845436
C       2.5455711     -1.8304866      0.1107397
C       2.6468675     -2.8178484      1.1342407
O      -0.0685055      0.3396034     -0.8164273
H       0.0937737      2.2962396     -2.5990151
C       2.7742372     -2.2137853     -1.2406261
C       2.9954443     -4.1505708      0.7791728
H       2.6848218     -1.4608387     -2.0250664
H       3.0761709     -4.8988855      1.5694580
C       3.1046775     -3.5113970     -1.5535836
C       3.2240682     -4.4889120     -0.5337716
H       3.2771816     -3.7925990     -2.5936773
H       3.4923325     -5.5133135     -0.7970530
H      -1.4969227     -1.7785147      2.4948693
C      -3.8660227     -1.1192435      1.7909716
C      -4.9319365     -0.3499121      1.1694941
C      -2.9797430      0.9028369      1.1514623
C      -1.3978016     -0.7378575      2.1616668
C      -4.4153163      0.8407575      0.7212685
N      -2.6985957     -0.3068342      1.7196267
O      -2.1862756      1.8288861      1.0352101
O      -3.8719552     -2.2030378      2.3421052
H      -5.9564665     -0.7084689      1.1135063
H      -1.0341636     -0.1219702      3.0010822
H      -4.9484663      1.7485286      0.4337652
H      -0.6801334     -0.6959132      1.3281897
