85
Energy = 0.00 kcal/mol # From:censo_3
O    -1.625743 2.464025 -0.821893
C    -2.805986 2.178441 -0.906450
O    -3.783978 3.087086 -0.730868
C    -3.398144 4.376987 -0.267848
C    -4.640357 5.233426 -0.185286
C    -3.381681 0.856816 -1.117576
N    -2.574635 -0.212344 -1.338706
C    -3.171915 -1.348855 -1.574898
C    -2.513629 -2.656039 -1.621306
C    -3.199733 -3.724739 -2.221646
C    -2.639135 -4.998337 -2.273184
C    -1.383483 -5.231282 -1.709448
C    -0.702561 -4.181529 -1.089042
C    -1.258762 -2.906088 -1.038822
H    -2.920457 4.259321 0.717226
H    -2.657087 4.806695 -0.959455
H    -5.108632 5.329075 -1.174461
H    -4.380514 6.236978 0.177044
H    -5.369553 4.790216 0.506420
H    -1.089175 -0.012095 -0.786220
H    -4.402433 0.851049 -1.514537
H    -4.229186 -1.339277 -1.875020
H    -4.185441 -3.545830 -2.658055
H    -3.184741 -5.813311 -2.752094
H    -0.942250 -6.228923 -1.743795
H    0.270146 -4.357078 -0.625994
H    -0.728422 -2.102378 -0.526644
H    2.517657 5.039520 2.030341
C    2.168571 4.019339 1.904321
H    3.710166 2.596044 2.669538
H    -0.533450 5.168764 1.680643
C    2.749514 2.830485 2.220865
H    -0.714774 4.180572 0.183189
C    -0.010033 4.708799 0.833750
N    0.951756 3.728727 1.325969
H    6.650729 0.953606 -1.265307
H    6.263877 1.870718 -3.557761
C    5.632820 1.032106 -1.651139
C    5.415031 1.551603 -2.951499
N    1.868087 1.842016 1.828573
H    0.529079 5.475617 0.266962
C    0.783039 2.409826 1.288152
C    4.574343 0.625209 -0.871723
C    4.133959 1.648978 -3.443359
H    2.102885 0.512192 4.093386
H    4.751943 0.224719 0.128838
H    3.952231 2.046001 -4.444741
C    2.125397 0.433646 1.924924
C    2.234649 -0.128386 3.220472
C    3.237452 0.716636 -1.354066
C    3.019729 1.235291 -2.665647
H    -0.102815 1.886051 0.909302
C    2.116001 0.302011 -0.578554
C    1.686236 1.320465 -3.160472
C    2.271256 -0.307923 0.771211
C    2.484168 -1.469061 3.352320
H    1.524916 1.718057 -4.164944
H    2.563430 -1.920465 4.342672
C    0.618256 0.922538 -2.401326
C    0.829199 0.401922 -1.090118
C    2.526139 -1.711988 0.903853
C    2.634073 -2.292715 2.202169
O    -0.177288 0.015453 -0.314039
H    -0.406072 1.001437 -2.767070
C    2.678687 -2.548332 -0.237348
C    2.888930 -3.686787 2.319577
H    2.587708 -2.107852 -1.231295
H    2.965195 -4.122950 3.317469
C    2.934563 -3.891247 -0.091000
C    3.038653 -4.468395 1.199564
H    3.051004 -4.520711 -0.974671
H    3.236805 -5.536458 1.299835
H    -1.198890 -2.257743 2.612446
C    -3.358386 -1.754347 1.329734
C    -4.458623 -0.978684 0.792695
C    -2.787711 0.467135 1.519910
C    -1.140127 -1.183441 2.398901
C    -4.117006 0.367676 0.826343
N    -2.347007 -0.819356 1.696712
O    -2.186277 1.472593 1.862107
O    -3.230034 -2.950491 1.513794
H    -5.400802 -1.430413 0.494299
H    -1.063025 -0.620865 3.341244
H    -4.793840 1.221331 0.849289
H    -0.253501 -0.978480 1.783730
85
Energy = 0.00 kcal/mol # From:censo_8
O    -1.638634 2.627285 -0.620807
C    -2.786710 2.320037 -0.867884
O    -3.789180 3.221832 -0.909054
C    -3.461239 4.582541 -0.649737
C    -4.648073 5.430240 -1.046255
C    -3.310894 0.978572 -1.111039
N    -2.458391 -0.067633 -1.220509
C    -2.981165 -1.222686 -1.536190
C    -2.283350 -2.508351 -1.482973
C    -2.914146 -3.628997 -2.047546
C    -2.327772 -4.890464 -1.985086
C    -1.100013 -5.059819 -1.342817
C    -0.470804 -3.956289 -0.762104
C    -1.053454 -2.693507 -0.826884
H    -3.230185 4.696519 0.420431
H    -2.558675 4.852378 -1.218102
H    -4.436810 6.489037 -0.845715
H    -5.539882 5.137538 -0.475280
H    -4.864251 5.312130 -2.116859
H    -1.012280 0.216099 -0.559039
H    -4.278740 0.941504 -1.622198
H    -3.992678 -1.247855 -1.965061
H    -3.880816 -3.502698 -2.541185
H    -2.833576 -5.747038 -2.434353
H    -0.640597 -6.048215 -1.286750
H    0.482743 -4.078211 -0.243402
H    -0.561850 -1.847201 -0.347828
H    1.982236 4.840871 0.967864
C    1.745183 3.821119 1.254299
H    3.585969 2.559906 1.139618
H    -0.584885 5.031243 2.479442
C    2.530129 2.713317 1.342390
H    -1.576770 3.660285 1.838199
C    -0.704706 4.301417 1.669881
N    0.469765 3.439425 1.617697
H    6.701477 0.408623 -1.627967
H    6.229679 1.416814 -3.866804
C    5.669946 0.600922 -1.928116
C    5.404045 1.172725 -3.196941
N    1.713448 1.681389 1.763520
H    -0.811407 4.805944 0.704379
C    0.468458 2.145542 1.908936
C    4.640835 0.285806 -1.070867
C    4.105103 1.418812 -3.576664
H    1.926517 0.368481 4.065462
H    4.858012 -0.155358 -0.095744
H    3.885829 1.861590 -4.550962
C    2.102272 0.306332 1.904211
C    2.157885 -0.254966 3.201027
C    3.285646 0.526177 -1.438251
C    3.020454 1.106442 -2.714355
H    -0.425226 1.572288 2.166481
C    2.193826 0.215323 -0.575276
C    1.669676 1.364455 -3.085994
C    2.382108 -0.411912 0.759691
C    2.503811 -1.574565 3.342668
H    1.470554 1.805398 -4.065307
H    2.552011 -2.028643 4.333790
C    0.632233 1.081244 -2.238409
C    0.889135 0.507478 -0.957500
C    2.743417 -1.790040 0.900519
C    2.806050 -2.369916 2.202867
O    -0.095753 0.243962 -0.103777
H    -0.401964 1.298018 -2.506741
C    3.021627 -2.608013 -0.231119
C    3.159848 -3.741828 2.332607
H    2.953256 -2.171664 -1.228364
H    3.206231 -4.177895 3.332430
C    3.363400 -3.929498 -0.072009
C    3.436015 -4.502983 1.222915
H    3.572958 -4.545302 -0.947851
H    3.707616 -5.553744 1.334089
H    -1.408019 -0.666287 3.453003
C    -3.560345 -1.696843 1.236324
C    -4.611527 -0.901359 0.633073
C    -3.031328 0.516203 1.567576
C    -1.413860 -1.152508 2.465477
C    -4.284506 0.442008 0.752341
N    -2.587935 -0.768949 1.720073
O    -2.476871 1.507029 2.024849
O    -3.444267 -2.896715 1.395573
H    -5.515835 -1.342574 0.222765
H    -0.497747 -0.883074 1.919061
H    -4.959332 1.296452 0.718680
H    -1.450616 -2.241510 2.592117
85
Energy = 0.00 kcal/mol # From:censo_9
O    -1.472063 2.313391 -0.915711
C    -2.641513 2.090400 -1.150971
O    -3.552532 3.070669 -1.303462
C    -3.104507 4.417068 -1.171958
C    -4.157407 5.318784 -1.774525
C    -3.288795 0.780748 -1.244958
N    -2.525025 -0.339681 -1.329848
C    -3.173369 -1.464966 -1.482830
C    -2.583213 -2.803262 -1.391837
C    -3.334018 -3.892510 -1.863848
C    -2.843194 -5.193014 -1.777865
C    -1.591864 -5.431320 -1.206383
C    -0.844219 -4.358181 -0.716656
C    -1.333717 -3.057622 -0.800123
H    -2.957189 4.639392 -0.103751
H    -2.133221 4.525095 -1.675670
H    -3.852764 6.369260 -1.676592
H    -5.120389 5.185069 -1.262906
H    -4.293332 5.090903 -2.840607
H    -1.039421 -0.180872 -0.820844
H    -4.272589 0.789010 -1.726916
H    -4.212778 -1.431611 -1.836707
H    -4.315852 -3.710046 -2.307622
H    -3.439933 -6.024892 -2.156241
H    -1.205277 -6.449419 -1.134859
H    0.129591 -4.533004 -0.253549
H    -0.746421 -2.234354 -0.394633
H    1.897950 4.796827 2.738279
C    1.712510 3.772291 2.431089
H    3.385388 2.467847 3.130294
H    -0.588321 5.103777 2.027019
C    2.439064 2.637285 2.625705
H    -1.402430 3.702969 1.233149
C    -0.487491 4.301369 1.288826
N    0.588608 3.413045 1.718137
H    6.663290 1.253769 -0.894823
H    6.330984 2.259504 -3.158431
C    5.664314 1.278691 -1.333682
C    5.477476 1.848532 -2.617429
N    1.739859 1.611833 2.018818
H    -0.251823 4.716494 0.301857
C    0.622831 2.108220 1.473278
C    4.599117 0.756224 -0.636442
C    4.220674 1.878017 -3.176579
H    2.076729 0.160871 4.186797
H    4.752845 0.318095 0.352057
H    4.063910 2.311610 -4.166992
C    2.111969 0.226854 2.016643
C    2.239059 -0.414665 3.274432
C    3.286353 0.778756 -1.187998
C    3.100493 1.346602 -2.483758
H    -0.147566 1.545127 0.940139
C    2.157209 0.253194 -0.494768
C    1.792089 1.358626 -3.048640
C    2.296004 -0.431976 0.820039
C    2.535533 -1.750821 3.321937
H    1.655838 1.786425 -4.044343
H    2.628068 -2.260955 4.282192
C    0.716890 0.855694 -2.366703
C    0.893544 0.297195 -1.066214
C    2.586203 -1.835634 0.863862
C    2.704813 -2.496204 2.121992
O    -0.119333 -0.182776 -0.352930
H    -0.288030 0.878825 -2.788836
C    2.747440 -2.596143 -0.328134
C    2.983183 -3.890195 2.150842
H    2.648563 -2.095688 -1.292283
H    3.071030 -4.386536 3.119297
C    3.016161 -3.943038 -0.268043
C    3.135872 -4.598307 0.983170
H    3.133109 -4.514355 -1.190131
H    3.348655 -5.667857 1.015207
H    -1.463519 -1.828082 3.073852
C    -3.449971 -1.580717 1.390904
C    -4.515197 -0.857677 0.727771
C    -2.895278 0.651047 1.434333
C    -1.267320 -0.925688 2.481262
C    -4.168056 0.491049 0.661292
N    -2.453072 -0.614650 1.720082
O    -2.331258 1.685585 1.758871
O    -3.332982 -2.752987 1.697192
H    -5.447748 -1.330494 0.432554
H    -1.039365 -0.082098 3.148568
H    -4.846961 1.339709 0.579970
H    -0.404384 -1.103696 1.822073
85
Energy = 0.00 kcal/mol # From:censo_5
O    -1.624347 2.346613 -1.050290
C    -2.783507 2.080030 -1.300639
O    -3.730965 3.021681 -1.492143
C    -3.408137 4.372141 -1.164989
C    -3.783418 4.651102 0.278722
C    -3.382151 0.750424 -1.359268
N    -2.590505 -0.354742 -1.395132
C    -3.213597 -1.497344 -1.511384
C    -2.602399 -2.818408 -1.345280
C    -3.331979 -3.943119 -1.763453
C    -2.825213 -5.229087 -1.595557
C    -1.579482 -5.415543 -0.993687
C    -0.852706 -4.305743 -0.557422
C    -1.358112 -3.019356 -0.723302
H    -2.339080 4.543576 -1.349917
H    -3.984958 4.995978 -1.859362
H    -3.457221 5.658456 0.575919
H    -3.311302 3.906022 0.936279
H    -4.872487 4.585235 0.411049
H    -1.112350 -0.140629 -0.879388
H    -4.367099 0.711095 -1.837096
H    -4.251394 -1.499025 -1.871939
H    -4.310111 -3.800167 -2.229213
H    -3.405343 -6.089934 -1.932557
H    -1.181225 -6.422389 -0.856781
H    0.116922 -4.440069 -0.072460
H    -0.788897 -2.165767 -0.356775
H    1.824194 4.811062 2.812345
C    1.648124 3.798586 2.462413
H    3.293376 2.464680 3.168637
H    -0.064560 5.283458 0.851669
C    2.364413 2.655267 2.639846
H    -1.129118 4.626128 2.143576
C    -0.509893 4.375648 1.274253
N    0.557411 3.471019 1.685602
H    6.581367 1.327225 -1.074416
H    6.214145 2.301838 -3.346649
C    5.575964 1.345134 -1.498708
C    5.369303 1.897512 -2.787367
N    1.691537 1.655585 1.962459
H    -1.109436 3.851622 0.521862
C    0.596858 2.176153 1.392969
C    4.522022 0.829839 -0.779303
C    4.104286 1.917845 -3.328205
H    2.099970 0.186007 4.094470
H    4.690988 0.404636 0.212262
H    3.931650 2.337630 -4.321866
C    2.081251 0.276439 1.924335
C    2.258902 -0.374110 3.171906
C    3.200986 0.843361 -1.311221
C    2.995172 1.394286 -2.611248
H    -0.162858 1.633555 0.822723
C    2.083723 0.322928 -0.593679
C    1.678831 1.395900 -3.157283
C    2.254709 -0.365606 0.716408
C    2.604525 -1.698418 3.199859
H    1.526938 1.808625 -4.157052
H    2.740935 -2.212313 4.152823
C    0.614857 0.900510 -2.452258
C    0.811617 0.360054 -1.146897
C    2.589555 -1.760906 0.741060
C    2.770078 -2.426583 1.989273
O    -0.192983 -0.105676 -0.411559
H    -0.395613 0.913332 -2.861204
C    2.742345 -2.507857 -0.460878
C    3.106871 -3.807863 1.999532
H    2.592474 -2.007480 -1.418428
H    3.244608 -4.305993 2.961202
C    3.065952 -3.843367 -0.418926
C    3.253793 -4.501262 0.822364
H    3.175055 -4.403742 -1.348592
H    3.512380 -5.560989 0.838644
H    -1.251221 -0.130659 3.251287
C    -3.561138 -1.519417 1.360893
C    -4.607900 -0.795533 0.673512
C    -2.957051 0.701733 1.337209
C    -1.368359 -0.867135 2.442556
C    -4.232801 0.542867 0.560552
N    -2.545832 -0.562341 1.667657
O    -2.370835 1.732749 1.632532
O    -3.469668 -2.685395 1.698737
H    -5.544489 -1.260396 0.378463
H    -0.467696 -0.857353 1.810902
H    -4.898337 1.400220 0.455226
H    -1.501617 -1.869510 2.867684
85
Energy = 0.00 kcal/mol # From:censo_10
O    -1.746437 2.579016 -0.544863
C    -2.876013 2.260258 -0.850593
O    -3.883540 3.152826 -0.965746
C    -3.587955 4.521416 -0.698825
C    -2.816223 5.173600 -1.830285
C    -3.379522 0.907625 -1.087374
N    -2.506682 -0.123740 -1.197635
C    -3.011957 -1.287306 -1.510445
C    -2.299648 -2.564780 -1.446262
C    -2.928171 -3.701200 -1.980977
C    -2.332531 -4.957109 -1.897221
C    -1.097303 -5.104370 -1.263839
C    -0.469731 -3.984482 -0.713370
C    -1.061919 -2.727409 -0.799268
H    -4.565928 4.999580 -0.563538
H    -3.036342 4.588475 0.248241
H    -1.826490 4.710765 -1.938279
H    -2.685220 6.245151 -1.623672
H    -3.364893 5.068148 -2.776837
H    -1.060091 0.185537 -0.554664
H    -4.339689 0.855630 -1.612047
H    -4.023082 -1.328670 -1.938793
H    -3.901221 -3.592105 -2.466259
H    -2.836861 -5.826677 -2.322627
H    -0.631077 -6.088493 -1.191029
H    0.490277 -4.088605 -0.202469
H    -0.570942 -1.867719 -0.344187
H    1.903620 4.838330 1.052939
C    1.671773 3.811133 1.316302
H    3.520051 2.563234 1.181602
H    -1.652800 3.620741 1.868358
C    2.462487 2.706159 1.383043
H    -0.873218 4.810288 0.786402
C    -0.780058 4.269387 1.734141
N    0.397309 3.413694 1.665232
H    6.648022 0.591015 -1.635550
H    6.149775 1.653815 -3.843236
C    5.611842 0.765943 -1.930215
C    5.330848 1.368773 -3.181353
N    1.649869 1.660162 1.776526
H    -0.673270 4.970349 2.570518
C    0.401103 2.113159 1.925775
C    4.591417 0.399192 -1.083127
C    4.025762 1.593415 -3.553695
H    1.853235 0.293437 4.050051
H    4.819654 -0.065368 -0.121286
H    3.795079 2.059758 -4.514325
C    2.050222 0.285859 1.889455
C    2.097266 -0.306652 3.172652
C    3.230488 0.616602 -1.443318
C    2.949599 1.228248 -2.701465
H    -0.490999 1.529656 2.166277
C    2.147836 0.254942 -0.589254
C    1.592342 1.463404 -3.064783
C    2.346058 -0.401652 0.730393
C    2.448468 -1.627673 3.284816
H    1.381570 1.927704 -4.030766
H    2.488157 -2.106509 4.264661
C    0.563144 1.132120 -2.224410
C    0.835836 0.529268 -0.960373
C    2.719199 -1.779203 0.840802
C    2.769113 -2.391892 2.128896
O    -0.138554 0.222514 -0.109546
H    -0.476242 1.333139 -2.484922
C    3.018679 -2.565520 -0.307572
C    3.129842 -3.764500 2.228520
H    2.961135 -2.103959 -1.294144
H    3.165376 -4.225810 3.217408
C    3.369493 -3.887805 -0.177088
C    3.427207 -4.494558 1.103436
H    3.596736 -4.479034 -1.065350
H    3.705027 -5.545970 1.190936
H    -1.443914 -0.727029 3.465809
C    -3.594564 -1.770484 1.252502
C    -4.650569 -0.985873 0.647308
C    -3.087989 0.447854 1.588400
C    -1.449216 -1.206169 2.474772
C    -4.335365 0.363159 0.763437
N    -2.631279 -0.832908 1.737470
O    -2.548175 1.442386 2.054640
O    -3.466111 -2.969508 1.413129
H    -5.550843 -1.435032 0.236575
H    -0.539348 -0.921094 1.925371
H    -5.024406 1.206893 0.741500
H    -1.470944 -2.296517 2.593173
85
Energy = 0.00 kcal/mol # From:censo_1
O    -1.916077 1.853226 -1.941207
C    -3.125489 1.698057 -1.836489
O    -3.974437 2.711924 -2.031139
C    -3.394862 3.984361 -2.327611
C    -4.520678 4.972306 -2.519638
C    -3.792950 0.464796 -1.439466
N    -3.001478 -0.631314 -1.326405
C    -3.549130 -1.774897 -1.078194
C    -2.737479 -2.936246 -0.698094
C    -3.356859 -4.141373 -0.340546
C    -2.596316 -5.241523 0.054524
C    -1.204913 -5.148918 0.100591
C    -0.580168 -3.944841 -0.241351
C    -1.336320 -2.845040 -0.631464
H    -2.730531 4.268735 -1.498143
H    -2.773944 3.892516 -3.230566
H    -5.168980 4.661387 -3.350258
H    -4.111374 5.964952 -2.749788
H    -5.130167 5.048029 -1.608683
H    -0.834956 0.719301 -1.275565
H    -4.846550 0.379970 -1.735472
H    -4.637094 -1.926816 -1.161453
H    -4.447058 -4.209358 -0.365237
H    -3.092215 -6.173953 0.330961
H    -0.606830 -6.009387 0.407088
H    0.506803 -3.864599 -0.203574
H    -0.857235 -1.896335 -0.883034
H    2.172866 4.156100 3.510667
C    1.908248 3.239506 2.992608
H    3.450923 1.676398 3.401891
H    -1.065226 3.740711 1.468046
C    2.532220 2.029787 2.943189
H    0.244671 4.974041 1.341484
C    -0.203449 4.195007 1.969103
N    0.777046 3.139629 2.210593
H    6.870201 1.110143 -0.275435
H    6.874688 2.864458 -2.055535
C    5.931575 1.399753 -0.751022
C    5.935660 2.394270 -1.760226
N    1.765097 1.220865 2.126857
H    -0.511784 4.620327 2.930416
C    0.709168 1.917376 1.694244
C    4.757250 0.794867 -0.366196
C    4.755458 2.760346 -2.363677
H    1.898167 -0.749257 3.870641
H    4.768830 0.028467 0.411095
H    4.743329 3.525133 -3.143419
C    2.044799 -0.145721 1.790535
C    2.092727 -1.083972 2.850743
C    3.519557 1.150681 -0.975308
C    3.527134 2.151725 -1.990983
H    -0.105532 1.550011 1.062643
C    2.282409 0.540612 -0.602411
C    2.294954 2.514580 -2.603186
C    2.259885 -0.491657 0.472401
C    2.375255 -2.395318 2.573705
H    2.299274 3.285623 -3.376565
H    2.420549 -3.130669 3.378511
C    1.116921 1.917908 -2.241214
C    1.103661 0.908247 -1.233581
C    2.535738 -1.866138 0.176430
C    2.611451 -2.817431 1.236380
O    -0.032234 0.308154 -0.856622
H    0.170716 2.201962 -2.699975
C    2.761341 -2.305942 -1.157722
C    2.927410 -4.170690 0.933891
H    2.691357 -1.582085 -1.970947
H    2.983908 -4.890243 1.752881
C    3.062348 -3.621888 -1.419315
C    3.152705 -4.563807 -0.363607
H    3.230117 -3.946703 -2.447061
H    3.393681 -5.604037 -0.587093
H    -0.996084 -0.093005 2.937477
C    -3.816870 -1.150095 1.710231
C    -4.867797 -0.401974 1.068828
C    -2.925489 0.873396 1.066281
C    -1.349029 -0.738319 2.115535
C    -4.339598 0.788129 0.573015
N    -2.644178 -0.325719 1.643549
O    -2.146532 1.815107 0.963097
O    -3.805848 -2.230985 2.275183
H    -5.889945 -0.764099 0.997990
H    -0.620400 -0.722014 1.290870
H    -4.885754 1.707298 0.358398
H    -1.451054 -1.767149 2.482994
85
Energy = 0.00 kcal/mol # From:censo_7
O    -1.995505 1.883842 -1.869791
C    -3.202599 1.722505 -1.749980
O    -4.066633 2.730242 -1.922120
C    -3.521353 4.010961 -2.250705
C    -3.203968 4.113314 -3.729613
C    -3.857610 0.483626 -1.351338
N    -3.061680 -0.611275 -1.261403
C    -3.603760 -1.757425 -1.013159
C    -2.781836 -2.921328 -0.665751
C    -3.389953 -4.130528 -0.303452
C    -2.617551 -5.233900 0.057818
C    -1.225496 -5.140707 0.063976
C    -0.611451 -3.932935 -0.284328
C    -1.379377 -2.829728 -0.640309
H    -4.295789 4.731106 -1.960155
H    -2.624738 4.180573 -1.639355
H    -2.852095 5.126700 -3.967717
H    -4.101167 3.906353 -4.329322
H    -2.418479 3.397220 -4.005466
H    -0.885848 0.755543 -1.232526
H    -4.916322 0.398622 -1.627983
H    -4.692730 -1.909760 -1.076968
H    -4.480292 -4.199387 -0.297676
H    -3.104552 -6.169531 0.339244
H    -0.618323 -6.003450 0.345019
H    0.476358 -3.852203 -0.278396
H    -0.908176 -1.878418 -0.897012
H    2.152396 4.085164 3.634845
C    1.889774 3.183233 3.090912
H    3.435856 1.612214 3.454607
H    -1.086377 3.722982 1.582633
C    2.516433 1.976843 3.006416
H    0.222510 4.959987 1.485711
C    -0.223923 4.164593 2.093705
N    0.758457 3.104244 2.306094
H    6.818549 1.222910 -0.248311
H    6.792585 3.026460 -1.979120
C    5.874821 1.511429 -0.714291
C    5.861785 2.533455 -1.695517
N    1.750784 1.190751 2.166694
H    -0.530197 4.564914 3.066343
C    0.693105 1.897221 1.754962
C    4.710957 0.877296 -0.344468
C    4.674172 2.898003 -2.285242
H    1.921339 -0.823458 3.854600
H    4.737400 0.088703 0.409966
H    4.647948 3.685066 -3.042153
C    2.034065 -0.164084 1.789693
C    2.104951 -1.129637 2.823813
C    3.465993 1.230175 -0.941024
C    3.456168 2.260830 -1.926695
H    -0.122919 1.544685 1.116629
C    2.238291 0.590863 -0.584633
C    2.217564 2.623345 -2.526053
C    2.233581 -0.472636 0.459869
C    2.394173 -2.430863 2.508581
H    2.209310 3.417118 -3.276078
H    2.456398 -3.186914 3.292832
C    1.048962 2.000327 -2.178385
C    1.052079 0.962505 -1.199657
C    2.515792 -1.836818 0.123644
C    2.613106 -2.815623 1.156988
O    -0.075384 0.340070 -0.833848
H    0.096758 2.284019 -2.625448
C    2.728311 -2.238656 -1.224560
C    2.933288 -4.158286 0.814095
H    2.643339 -1.493548 -2.016906
H    3.006224 -4.899276 1.612474
C    3.035258 -3.544882 -1.525072
C    3.144386 -4.514408 -0.496482
H    3.193622 -3.840529 -2.563014
H    3.389819 -5.546387 -0.751329
H    -1.451210 -1.801397 2.493874
C    -3.830363 -1.166133 1.775986
C    -4.889550 -0.407712 1.162001
C    -2.944042 0.862740 1.142413
C    -1.353510 -0.766928 2.141085
C    -4.366683 0.787346 0.672383
N    -2.656558 -0.343648 1.701175
O    -2.164606 1.803767 1.037483
O    -3.813716 -2.254304 2.326780
H    -5.914335 -0.765254 1.106225
H    -0.982968 -0.135954 2.966550
H    -4.913570 1.711065 0.480466
H    -0.640930 -0.738453 1.302667
